generated by phonopy                    
   1.00000000000000     
    11.4081287385000003    0.0000000000000000    0.0000000000000000
     0.0000000000000000   11.4081287385000003    0.0000000000000000
     0.0000000000000000    0.0000000000000000    9.7477521895999999
   Ti   O 
    36    72
Direct
  0.0000000018678547  0.0000480931208401  0.9991770513396988
  0.3335133298156180  0.9998180346876510  0.9999987441183845
  0.6664866717421924  0.9998180388643597  0.9999987173390319
  0.9999999961682419  0.3333323468183151  0.0000000888601995
  0.3332830101976921  0.3333322597756417  0.0008255171302283
  0.6667169833560230  0.3333322656198047  0.0008254892018236
 -0.0000000030021762  0.6666139529821221  0.9991746002685400
  0.3335121123395431  0.6668434496650669  0.9999995246235508
  0.6664878861019995  0.6668434487837571  0.9999994996513389
  0.1666639139516140  0.1666681922218240  0.5000013677490608
  0.5000000002300879  0.1663887228445147  0.5025368749769151
  0.8333360867597922  0.1666681955678384  0.5000013472795423
  0.1666632257446982  0.4999997971980908  0.5000007094944868
  0.5000000019541275  0.5002886028135711  0.5025370213729116
  0.8333367713033851  0.4999997969324289  0.5000006895831469
  0.1669484120030447  0.8333342844671991  0.4974602058556188
  0.5000000032123898  0.8333397204302607  0.5000004906827402
  0.8330515841012321  0.8333342834026726  0.4974601842931144
  0.0000000050861453  0.1665136165092066  0.2497871189842383
  0.3336880466330893  0.1664616961614790  0.2506634295901308
  0.6663119516977972  0.1664617026358048  0.2506634081410152
  0.0000000003051430  0.5001478807981663  0.2497863700486290
  0.3336884365320412  0.5002028636048187  0.2506642846112243
  0.6663115588265017  0.5002028647784919  0.2506642627599024
  0.0000000037020255  0.8333322205614059  0.2486347041994801
  0.3335734631385770  0.8333336742920384  0.2506659384507937
  0.6664265328548773  0.8333336736726387  0.2506659016360800
  0.1668680362055228  0.9996424828889052  0.7493355699119947
  0.4999999964953169 -0.0002386359317058  0.7493328468650596
  0.8331319709145707  0.9996424863355998  0.7493355462379446
  0.1668169194042858  0.3333334342248650  0.7502139950719336
  0.4999999915138973  0.3333369877201996  0.7513658649953663
  0.8331830855200276  0.3333334393439681  0.7502139738538376
  0.1668694030335312  0.6670219121974014  0.7493350276962450
  0.4999999985968658  0.6669073788041725  0.7493344662839941
  0.8331306007622358  0.6670219136026406  0.7493350073471553
  0.0000000141836544  0.0004435162562918  0.2054480515368906
  0.3327206355795595  0.0003115212162022  0.2064062009433828
  0.6672793579298056  0.0003115268242033  0.2064061540494497
 -0.0000000005228264  0.3333300227098915  0.2064797924869050
  0.3335518950502214  0.3333308852897611  0.2073960952308996
  0.6664481043853248  0.3333308864543729  0.2073960753227584
  0.0000000163305887  0.6662198669078812  0.2054468599865119
  0.3327162933670418  0.6663533344175648  0.2064076395860429
  0.6672836968438444  0.6663533359104852  0.2064075930894741
  0.1666601088665334  0.1667435588307858  0.7068545822440593
  0.4999999882138564  0.1677559438180881  0.7104758280855934
  0.8333399038450366  0.1667435623303497  0.7068545634486066
  0.1666554048666381  0.4999240189608419  0.7068563946591849
  0.4999999864971836  0.4989190923723656  0.7104746308989226
  0.8333446047904332  0.4999240189007064  0.7068563758547193
  0.1672728245996353  0.8333321810001026  0.7057645268208810
  0.5000000060974790  0.8333344839003670  0.7108048905711967
  0.8327271721864847  0.8333321846608531  0.7057645119317136
 -0.0000000010853239  0.1673549551095213  0.4560280096721150
  0.3328205187894496  0.1677203787770856  0.4569249618847950
  0.6671794843431560  0.1677203873262240  0.4569249301471088
 -0.0000000000978810  0.4993330452693129  0.4560274019941120
  0.3328208040899620  0.4989663328608254  0.4569243484219302
  0.6671791955417573  0.4989663272820912  0.4569243159244418
  0.9999999927095319  0.8333213029735113  0.4540093374358019
  0.3290250960940909  0.8333414052222456  0.4530738724642348
  0.6709749089805673  0.8333414108130672  0.4530738257791999
  0.1664761737913687  0.0004479672581984  0.9561692934195880
  0.5000000030950141  0.0006834188288047  0.9580061947972023
  0.8335238260120422  0.0004479624926589  0.9561692627968768
  0.1664775607783827  0.3333253130501147  0.9571375115453221
  0.5000000000905171  0.3333264275625806  0.9586625540897217
  0.8335224341698888  0.3333253144499863  0.9571374735881961
  0.1664750172560772  0.6662122826301601  0.9561648977669893
  0.4999999992424782  0.6659748748993984  0.9580093918990994
  0.8335249832895811  0.6662122899595864  0.9561648668548853
  0.1656062010566610  0.0005099280102791  0.5430748550904499
  0.5000000143932294  0.0043134765578919  0.5469259031754308
  0.8343937916774801  0.0005099330085699  0.5430748072905862
  0.1659950637343973  0.3333342429011287  0.5439769335953373
  0.5000000043255359  0.3333372183020168  0.5459897975959911
  0.8340049334441887  0.3333342425776752  0.5439768917302484
  0.1656169179383332  0.6661578015731889  0.5430751176571962
  0.5000000139589238  0.6623632600861864  0.5469254099971569
  0.8343830710894077  0.6661578005877377  0.5430750699636535
  0.9999999905650109  0.1668549752047803  0.0428627969054589
  0.3328717864009453  0.1668569808075056  0.0438309157316777
  0.6671282193470039  0.1668569862607153  0.0438308800217905
  0.9999999893068122  0.4998091254147644  0.0428609828841593
  0.3328682956096405  0.4998075403993802  0.0438308556643249
  0.6671317098831494  0.4998075373790151  0.0438308181158926
  0.0000000029643304  0.8333295941619115  0.0413413035890778
  0.3326399505577110  0.8333298619777929  0.0419929919778409
  0.6673600426968284  0.8333298655280529  0.0419929380534993
  0.1665906926101107  0.1666868823971074  0.2931467537422433
  0.5000000016923906  0.1660709636014795  0.2942323086910044
  0.8334093078142439  0.1666868714844252  0.2931467326249474
  0.1665906281067039  0.4999765078739085  0.2931459442437260
  0.4999999985217379  0.5005904767056876  0.2942303681958705
  0.8334093725741100  0.4999765235768633  0.2931459212755767
  0.1655809735410273  0.8333399310895125  0.2895233168992997
  0.4999999999983802  0.8333260448414332  0.2891934421215773
  0.8344190261298473  0.8333399313651170  0.2895232417853125
 -0.0000000009324673  0.9997775978085673  0.7926060936468327
  0.3330182657706265  0.0006026376755306  0.7935920431810985
  0.6669817381657909  0.0006026580079500  0.7935920068917226
 -0.0000000001594119  0.3333241193685785  0.7935170107721452
  0.3328882376293177  0.3333331836742505  0.7945565528090236
  0.6671117602164145  0.3333331852382479  0.7945565096673191
  0.0000000000969658  0.6669003547260006  0.7926032445370623
  0.3330195608970220  0.6660606810651964  0.7935952361267113
  0.6669804391066639  0.6660606628390160  0.7935951980145481
 
  0.00000000E+00  0.00000000E+00  0.00000000E+00
  0.00000000E+00  0.00000000E+00  0.00000000E+00
  0.00000000E+00  0.00000000E+00  0.00000000E+00
  0.00000000E+00  0.00000000E+00  0.00000000E+00
  0.00000000E+00  0.00000000E+00  0.00000000E+00
  0.00000000E+00  0.00000000E+00  0.00000000E+00
  0.00000000E+00  0.00000000E+00  0.00000000E+00
  0.00000000E+00  0.00000000E+00  0.00000000E+00
  0.00000000E+00  0.00000000E+00  0.00000000E+00
  0.00000000E+00  0.00000000E+00  0.00000000E+00
  0.00000000E+00  0.00000000E+00  0.00000000E+00
  0.00000000E+00  0.00000000E+00  0.00000000E+00
  0.00000000E+00  0.00000000E+00  0.00000000E+00
  0.00000000E+00  0.00000000E+00  0.00000000E+00
  0.00000000E+00  0.00000000E+00  0.00000000E+00
  0.00000000E+00  0.00000000E+00  0.00000000E+00
  0.00000000E+00  0.00000000E+00  0.00000000E+00
  0.00000000E+00  0.00000000E+00  0.00000000E+00
  0.00000000E+00  0.00000000E+00  0.00000000E+00
  0.00000000E+00  0.00000000E+00  0.00000000E+00
  0.00000000E+00  0.00000000E+00  0.00000000E+00
  0.00000000E+00  0.00000000E+00  0.00000000E+00
  0.00000000E+00  0.00000000E+00  0.00000000E+00
  0.00000000E+00  0.00000000E+00  0.00000000E+00
  0.00000000E+00  0.00000000E+00  0.00000000E+00
  0.00000000E+00  0.00000000E+00  0.00000000E+00
  0.00000000E+00  0.00000000E+00  0.00000000E+00
  0.00000000E+00  0.00000000E+00  0.00000000E+00
  0.00000000E+00  0.00000000E+00  0.00000000E+00
  0.00000000E+00  0.00000000E+00  0.00000000E+00
  0.00000000E+00  0.00000000E+00  0.00000000E+00
  0.00000000E+00  0.00000000E+00  0.00000000E+00
  0.00000000E+00  0.00000000E+00  0.00000000E+00
  0.00000000E+00  0.00000000E+00  0.00000000E+00
  0.00000000E+00  0.00000000E+00  0.00000000E+00
  0.00000000E+00  0.00000000E+00  0.00000000E+00
  0.00000000E+00  0.00000000E+00  0.00000000E+00
  0.00000000E+00  0.00000000E+00  0.00000000E+00
  0.00000000E+00  0.00000000E+00  0.00000000E+00
  0.00000000E+00  0.00000000E+00  0.00000000E+00
  0.00000000E+00  0.00000000E+00  0.00000000E+00
  0.00000000E+00  0.00000000E+00  0.00000000E+00
  0.00000000E+00  0.00000000E+00  0.00000000E+00
  0.00000000E+00  0.00000000E+00  0.00000000E+00
  0.00000000E+00  0.00000000E+00  0.00000000E+00
  0.00000000E+00  0.00000000E+00  0.00000000E+00
  0.00000000E+00  0.00000000E+00  0.00000000E+00
  0.00000000E+00  0.00000000E+00  0.00000000E+00
  0.00000000E+00  0.00000000E+00  0.00000000E+00
  0.00000000E+00  0.00000000E+00  0.00000000E+00
  0.00000000E+00  0.00000000E+00  0.00000000E+00
  0.00000000E+00  0.00000000E+00  0.00000000E+00
  0.00000000E+00  0.00000000E+00  0.00000000E+00
  0.00000000E+00  0.00000000E+00  0.00000000E+00
  0.00000000E+00  0.00000000E+00  0.00000000E+00
  0.00000000E+00  0.00000000E+00  0.00000000E+00
  0.00000000E+00  0.00000000E+00  0.00000000E+00
  0.00000000E+00  0.00000000E+00  0.00000000E+00
  0.00000000E+00  0.00000000E+00  0.00000000E+00
  0.00000000E+00  0.00000000E+00  0.00000000E+00
  0.00000000E+00  0.00000000E+00  0.00000000E+00
  0.00000000E+00  0.00000000E+00  0.00000000E+00
  0.00000000E+00  0.00000000E+00  0.00000000E+00
  0.00000000E+00  0.00000000E+00  0.00000000E+00
  0.00000000E+00  0.00000000E+00  0.00000000E+00
  0.00000000E+00  0.00000000E+00  0.00000000E+00
  0.00000000E+00  0.00000000E+00  0.00000000E+00
  0.00000000E+00  0.00000000E+00  0.00000000E+00
  0.00000000E+00  0.00000000E+00  0.00000000E+00
  0.00000000E+00  0.00000000E+00  0.00000000E+00
  0.00000000E+00  0.00000000E+00  0.00000000E+00
  0.00000000E+00  0.00000000E+00  0.00000000E+00
  0.00000000E+00  0.00000000E+00  0.00000000E+00
  0.00000000E+00  0.00000000E+00  0.00000000E+00
  0.00000000E+00  0.00000000E+00  0.00000000E+00
  0.00000000E+00  0.00000000E+00  0.00000000E+00
  0.00000000E+00  0.00000000E+00  0.00000000E+00
  0.00000000E+00  0.00000000E+00  0.00000000E+00
  0.00000000E+00  0.00000000E+00  0.00000000E+00
  0.00000000E+00  0.00000000E+00  0.00000000E+00
  0.00000000E+00  0.00000000E+00  0.00000000E+00
  0.00000000E+00  0.00000000E+00  0.00000000E+00
  0.00000000E+00  0.00000000E+00  0.00000000E+00
  0.00000000E+00  0.00000000E+00  0.00000000E+00
  0.00000000E+00  0.00000000E+00  0.00000000E+00
  0.00000000E+00  0.00000000E+00  0.00000000E+00
  0.00000000E+00  0.00000000E+00  0.00000000E+00
  0.00000000E+00  0.00000000E+00  0.00000000E+00
  0.00000000E+00  0.00000000E+00  0.00000000E+00
  0.00000000E+00  0.00000000E+00  0.00000000E+00
  0.00000000E+00  0.00000000E+00  0.00000000E+00
  0.00000000E+00  0.00000000E+00  0.00000000E+00
  0.00000000E+00  0.00000000E+00  0.00000000E+00
  0.00000000E+00  0.00000000E+00  0.00000000E+00
  0.00000000E+00  0.00000000E+00  0.00000000E+00
  0.00000000E+00  0.00000000E+00  0.00000000E+00
  0.00000000E+00  0.00000000E+00  0.00000000E+00
  0.00000000E+00  0.00000000E+00  0.00000000E+00
  0.00000000E+00  0.00000000E+00  0.00000000E+00
  0.00000000E+00  0.00000000E+00  0.00000000E+00
  0.00000000E+00  0.00000000E+00  0.00000000E+00
  0.00000000E+00  0.00000000E+00  0.00000000E+00
  0.00000000E+00  0.00000000E+00  0.00000000E+00
  0.00000000E+00  0.00000000E+00  0.00000000E+00
  0.00000000E+00  0.00000000E+00  0.00000000E+00
  0.00000000E+00  0.00000000E+00  0.00000000E+00
  0.00000000E+00  0.00000000E+00  0.00000000E+00
  0.00000000E+00  0.00000000E+00  0.00000000E+00
