generated by phonopy                    
   1.00000000000000     
    11.4081287385000003    0.0000000000000000    0.0000000000000000
     0.0000000000000000   11.4081287385000003    0.0000000000000000
     0.0000000000000000    0.0000000000000000    9.7477521895999999
   Ti   O 
    36    72
Direct
 -0.0000000000000000  0.0000000000000000 -0.0000000000000000
  0.3333333333333357 -0.0000000000000000 -0.0000000000000000
  0.6666666666666643 -0.0000000000000000 -0.0000000000000000
 -0.0000000000000000  0.3333333333333357 -0.0000000000000000
  0.3333333333333357  0.3333333333333357 -0.0000000000000000
  0.6666666666666643  0.3333333333333357 -0.0000000000000000
 -0.0000000000000000  0.6666666666666643 -0.0000000000000000
  0.3333333333333357  0.6666666666666643 -0.0000000000000000
  0.6666666666666643  0.6666666666666643 -0.0000000000000000
  0.1666666666666643  0.1666666666666643  0.5000000000000000
  0.5000000000000000  0.1666666666666643  0.5000000000000000
  0.8333333333333357  0.1666666666666643  0.5000000000000000
  0.1666666666666643  0.5000000000000000  0.5000000000000000
  0.5000000000000000  0.5000000000000000  0.5000000000000000
  0.8333333333333357  0.5000000000000000  0.5000000000000000
  0.1666666666666643  0.8333333333333357  0.5000000000000000
  0.5000000000000000  0.8333333333333357  0.5000000000000000
  0.8333333333333357  0.8333333333333357  0.5000000000000000
  0.0000000000000000  0.1666666666666643  0.2500000000000000
  0.3333333333333357  0.1666666666666643  0.2500000000000000
  0.6666666666666643  0.1666666666666643  0.2500000000000000
  0.0000000000000000  0.5000000000000000  0.2500000000000000
  0.3333333333333357  0.5000000000000000  0.2500000000000000
  0.6666666666666643  0.5000000000000000  0.2500000000000000
  0.0000000000000000  0.8333333333333357  0.2500000000000000
  0.3333333333333357  0.8333333333333357  0.2500000000000000
  0.6666666666666643  0.8333333333333357  0.2500000000000000
  0.1666666666666643 -0.0000000000000000  0.7499999759999980
  0.5000000000000000 -0.0000000000000000  0.7499999759999980
  0.8333333333333357  0.0000000000000000  0.7499999759999980
  0.1666666666666643  0.3333333333333357  0.7499999759999980
  0.5000000000000000  0.3333333333333357  0.7499999759999980
  0.8333333333333357  0.3333333333333357  0.7499999759999980
  0.1666666666666643  0.6666666666666643  0.7499999759999980
  0.5000000000000000  0.6666666666666643  0.7499999759999980
  0.8333333333333357  0.6666666666666643  0.7499999759999980
 -0.0000000000000000 -0.0000000000000000  0.2066298909463761
  0.3333333333333357  0.0000000000000000  0.2066298909463761
  0.6666666666666643 -0.0000000000000000  0.2066298909463761
 -0.0000000000000000  0.3333333333333357  0.2066298909463761
  0.3333333333333357  0.3333333333333357  0.2066298909463761
  0.6666666666666643  0.3333333333333357  0.2066298909463761
  0.0000000000000000  0.6666666666666643  0.2066298909463761
  0.3333333333333357  0.6666666666666643  0.2066298909463761
  0.6666666666666643  0.6666666666666643  0.2066298909463761
  0.1666666666666643  0.1666666666666643  0.7066298909463761
  0.5000000000000000  0.1666666666666643  0.7066298909463761
  0.8333333333333357  0.1666666666666643  0.7066298909463761
  0.1666666666666643  0.5000000000000000  0.7066298909463761
  0.5000000000000000  0.5000000000000000  0.7066298909463761
  0.8333333333333357  0.5000000000000000  0.7066298909463761
  0.1666666666666643  0.8333333333333357  0.7066298909463761
  0.5000000000000000  0.8333333333333357  0.7066298909463761
  0.8333333333333357  0.8333333333333357  0.7066298909463761
 -0.0000000000000000  0.1666666666666643  0.4566298659463777
  0.3333333333333357  0.1666666666666643  0.4566298659463777
  0.6666666666666643  0.1666666666666643  0.4566298659463777
  0.0000000000000000  0.5000000000000000  0.4566298659463777
  0.3333333333333357  0.5000000000000000  0.4566298659463777
  0.6666666666666643  0.5000000000000000  0.4566298659463777
  0.0000000000000000  0.8333333333333357  0.4566298659463777
  0.3333333333333357  0.8333333333333357  0.4566298659463777
  0.6666666666666643  0.8333333333333357  0.4566298659463777
  0.1666666666666643  0.0000000000000000  0.9566299149463781
  0.5000000000000000 -0.0000000000000000  0.9566299149463781
  0.8333333333333357 -0.0000000000000000  0.9566299149463781
  0.1666666666666643  0.3333333333333357  0.9566299149463781
  0.5000000000000000  0.3333333333333357  0.9566299149463781
  0.8333333333333357  0.3333333333333357  0.9566299149463781
  0.1666666666666643  0.6666666666666643  0.9566299149463781
  0.5000000000000000  0.6666666666666643  0.9566299149463781
  0.8333333333333357  0.6666666666666643  0.9566299149463781
  0.1666666666666643  0.0000000000000000  0.5433701340536224
  0.5000000000000000  0.0000000000000000  0.5433701340536224
  0.8333333333333357  0.0000000000000000  0.5433701340536224
  0.1666666666666643  0.3333333333333357  0.5433701340536224
  0.5000000000000000  0.3333333333333357  0.5433701340536224
  0.8333333333333357  0.3333333333333357  0.5433701340536224
  0.1666666666666643  0.6666666666666643  0.5433701340536224
  0.5000000000000000  0.6666666666666643  0.5433701340536224
  0.8333333333333357  0.6666666666666643  0.5433701340536224
 -0.0000000000000000  0.1666666666666643  0.0433701120536205
  0.3333333333333357  0.1666666666666643  0.0433701120536205
  0.6666666666666643  0.1666666666666643  0.0433701120536205
  0.0000000000000000  0.5000000000000000  0.0433701120536205
  0.3333333333333357  0.5000000000000000  0.0433701120536205
  0.6666666666666643  0.5000000000000000  0.0433701120536205
 -0.0000000000000000  0.8333333333333357  0.0433701120536205
  0.3333333333333357  0.8333333333333357  0.0433701120536205
  0.6666666666666643  0.8333333333333357  0.0433701120536205
  0.1666666666666643  0.1666666666666643  0.2933701340536223
  0.5000000000000000  0.1666666666666643  0.2933701340536223
  0.8333333333333357  0.1666666666666643  0.2933701340536223
  0.1666666666666643  0.5000000000000000  0.2933701340536223
  0.5000000000000000  0.5000000000000000  0.2933701340536223
  0.8333333333333357  0.5000000000000000  0.2933701340536223
  0.1666666666666643  0.8333333333333357  0.2933701340536223
  0.5000000000000000  0.8333333333333357  0.2933701340536223
  0.8333333333333357  0.8333333333333357  0.2933701340536223
  0.0000000000000000 -0.0000000000000000  0.7933701090536239
  0.3333333333333357 -0.0000000000000000  0.7933701090536239
  0.6666666666666643 -0.0000000000000000  0.7933701090536239
  0.0000000000000000  0.3333333333333357  0.7933701090536239
  0.3333333333333357  0.3333333333333357  0.7933701090536239
  0.6666666666666643  0.3333333333333357  0.7933701090536239
  0.0000000000000000  0.6666666666666643  0.7933701090536239
  0.3333333333333357  0.6666666666666643  0.7933701090536239
  0.6666666666666643  0.6666666666666643  0.7933701090536239
 
  0.00000000E+00  0.00000000E+00  0.00000000E+00
  0.00000000E+00  0.00000000E+00  0.00000000E+00
  0.00000000E+00  0.00000000E+00  0.00000000E+00
  0.00000000E+00  0.00000000E+00  0.00000000E+00
  0.00000000E+00  0.00000000E+00  0.00000000E+00
  0.00000000E+00  0.00000000E+00  0.00000000E+00
  0.00000000E+00  0.00000000E+00  0.00000000E+00
  0.00000000E+00  0.00000000E+00  0.00000000E+00
  0.00000000E+00  0.00000000E+00  0.00000000E+00
  0.00000000E+00  0.00000000E+00  0.00000000E+00
  0.00000000E+00  0.00000000E+00  0.00000000E+00
  0.00000000E+00  0.00000000E+00  0.00000000E+00
  0.00000000E+00  0.00000000E+00  0.00000000E+00
  0.00000000E+00  0.00000000E+00  0.00000000E+00
  0.00000000E+00  0.00000000E+00  0.00000000E+00
  0.00000000E+00  0.00000000E+00  0.00000000E+00
  0.00000000E+00  0.00000000E+00  0.00000000E+00
  0.00000000E+00  0.00000000E+00  0.00000000E+00
  0.00000000E+00  0.00000000E+00  0.00000000E+00
  0.00000000E+00  0.00000000E+00  0.00000000E+00
  0.00000000E+00  0.00000000E+00  0.00000000E+00
  0.00000000E+00  0.00000000E+00  0.00000000E+00
  0.00000000E+00  0.00000000E+00  0.00000000E+00
  0.00000000E+00  0.00000000E+00  0.00000000E+00
  0.00000000E+00  0.00000000E+00  0.00000000E+00
  0.00000000E+00  0.00000000E+00  0.00000000E+00
  0.00000000E+00  0.00000000E+00  0.00000000E+00
  0.00000000E+00  0.00000000E+00  0.00000000E+00
  0.00000000E+00  0.00000000E+00  0.00000000E+00
  0.00000000E+00  0.00000000E+00  0.00000000E+00
  0.00000000E+00  0.00000000E+00  0.00000000E+00
  0.00000000E+00  0.00000000E+00  0.00000000E+00
  0.00000000E+00  0.00000000E+00  0.00000000E+00
  0.00000000E+00  0.00000000E+00  0.00000000E+00
  0.00000000E+00  0.00000000E+00  0.00000000E+00
  0.00000000E+00  0.00000000E+00  0.00000000E+00
  0.00000000E+00  0.00000000E+00  0.00000000E+00
  0.00000000E+00  0.00000000E+00  0.00000000E+00
  0.00000000E+00  0.00000000E+00  0.00000000E+00
  0.00000000E+00  0.00000000E+00  0.00000000E+00
  0.00000000E+00  0.00000000E+00  0.00000000E+00
  0.00000000E+00  0.00000000E+00  0.00000000E+00
  0.00000000E+00  0.00000000E+00  0.00000000E+00
  0.00000000E+00  0.00000000E+00  0.00000000E+00
  0.00000000E+00  0.00000000E+00  0.00000000E+00
  0.00000000E+00  0.00000000E+00  0.00000000E+00
  0.00000000E+00  0.00000000E+00  0.00000000E+00
  0.00000000E+00  0.00000000E+00  0.00000000E+00
  0.00000000E+00  0.00000000E+00  0.00000000E+00
  0.00000000E+00  0.00000000E+00  0.00000000E+00
  0.00000000E+00  0.00000000E+00  0.00000000E+00
  0.00000000E+00  0.00000000E+00  0.00000000E+00
  0.00000000E+00  0.00000000E+00  0.00000000E+00
  0.00000000E+00  0.00000000E+00  0.00000000E+00
  0.00000000E+00  0.00000000E+00  0.00000000E+00
  0.00000000E+00  0.00000000E+00  0.00000000E+00
  0.00000000E+00  0.00000000E+00  0.00000000E+00
  0.00000000E+00  0.00000000E+00  0.00000000E+00
  0.00000000E+00  0.00000000E+00  0.00000000E+00
  0.00000000E+00  0.00000000E+00  0.00000000E+00
  0.00000000E+00  0.00000000E+00  0.00000000E+00
  0.00000000E+00  0.00000000E+00  0.00000000E+00
  0.00000000E+00  0.00000000E+00  0.00000000E+00
  0.00000000E+00  0.00000000E+00  0.00000000E+00
  0.00000000E+00  0.00000000E+00  0.00000000E+00
  0.00000000E+00  0.00000000E+00  0.00000000E+00
  0.00000000E+00  0.00000000E+00  0.00000000E+00
  0.00000000E+00  0.00000000E+00  0.00000000E+00
  0.00000000E+00  0.00000000E+00  0.00000000E+00
  0.00000000E+00  0.00000000E+00  0.00000000E+00
  0.00000000E+00  0.00000000E+00  0.00000000E+00
  0.00000000E+00  0.00000000E+00  0.00000000E+00
  0.00000000E+00  0.00000000E+00  0.00000000E+00
  0.00000000E+00  0.00000000E+00  0.00000000E+00
  0.00000000E+00  0.00000000E+00  0.00000000E+00
  0.00000000E+00  0.00000000E+00  0.00000000E+00
  0.00000000E+00  0.00000000E+00  0.00000000E+00
  0.00000000E+00  0.00000000E+00  0.00000000E+00
  0.00000000E+00  0.00000000E+00  0.00000000E+00
  0.00000000E+00  0.00000000E+00  0.00000000E+00
  0.00000000E+00  0.00000000E+00  0.00000000E+00
  0.00000000E+00  0.00000000E+00  0.00000000E+00
  0.00000000E+00  0.00000000E+00  0.00000000E+00
  0.00000000E+00  0.00000000E+00  0.00000000E+00
  0.00000000E+00  0.00000000E+00  0.00000000E+00
  0.00000000E+00  0.00000000E+00  0.00000000E+00
  0.00000000E+00  0.00000000E+00  0.00000000E+00
  0.00000000E+00  0.00000000E+00  0.00000000E+00
  0.00000000E+00  0.00000000E+00  0.00000000E+00
  0.00000000E+00  0.00000000E+00  0.00000000E+00
  0.00000000E+00  0.00000000E+00  0.00000000E+00
  0.00000000E+00  0.00000000E+00  0.00000000E+00
  0.00000000E+00  0.00000000E+00  0.00000000E+00
  0.00000000E+00  0.00000000E+00  0.00000000E+00
  0.00000000E+00  0.00000000E+00  0.00000000E+00
  0.00000000E+00  0.00000000E+00  0.00000000E+00
  0.00000000E+00  0.00000000E+00  0.00000000E+00
  0.00000000E+00  0.00000000E+00  0.00000000E+00
  0.00000000E+00  0.00000000E+00  0.00000000E+00
  0.00000000E+00  0.00000000E+00  0.00000000E+00
  0.00000000E+00  0.00000000E+00  0.00000000E+00
  0.00000000E+00  0.00000000E+00  0.00000000E+00
  0.00000000E+00  0.00000000E+00  0.00000000E+00
  0.00000000E+00  0.00000000E+00  0.00000000E+00
  0.00000000E+00  0.00000000E+00  0.00000000E+00
  0.00000000E+00  0.00000000E+00  0.00000000E+00
  0.00000000E+00  0.00000000E+00  0.00000000E+00
  0.00000000E+00  0.00000000E+00  0.00000000E+00
