generated by phonopy                    
   1.00000000000000     
    11.4081287385000003    0.0000000000000000    0.0000000000000000
     0.0000000000000000   11.4081287385000003    0.0000000000000000
     0.0000000000000000    0.0000000000000000    9.7477521895999999
   Ti   O 
    36    72
Direct
  0.9999999970742236  0.0001190181596313  0.9993469443191274
  0.3334481581324936  0.9997328868751707  0.0000711092290451
  0.6665518446327697  0.9997329012595439  0.0000710642404516
 -0.0000000057557501  0.3333356318536694  0.9998975768986266
  0.3334303374749754  0.3333338454718933  0.0006881271409657
  0.6665696679684395  0.3333338461617774  0.0006881028788723
  0.9999999906289245  0.6665489120492596  0.9993448362985632
  0.3334465697802211  0.6669303121443640  0.0000721522707053
  0.6665534311892822  0.6669303008936817  0.0000721054115489
  0.1666634183970528  0.1666226229971448  0.5001181584263934
  0.5000000017169709  0.1661185409590061  0.5025329321425868
  0.8333365826250480  0.1666226229442631  0.5001181289861394
  0.1666624623747425  0.5000478667128578  0.5001179090045397
  0.5000000028666990  0.5005459531699112  0.5025318848657595
  0.8333375361791979  0.5000478665829929  0.5001178796172647
  0.1661589922686386  0.8333353026771175  0.4982692283218497
  0.5000000165779747  0.8333296986654101  0.4969841022507591
  0.8338410046724997  0.8333353020816270  0.4982691361982940
  0.0000000048240170  0.1665986334340598  0.2498101169216992
  0.3337013260418101  0.1663807162670892  0.2504432905192572
  0.6662986727623720  0.1663807211887316  0.2504432730887748
  0.0000000046119007  0.5000686577893160  0.2498094540229121
  0.3337014260033813  0.5002870223423105  0.2504445245124725
  0.6662985728079521  0.5002870235855421  0.2504445079241506
  0.0000000140398734  0.8333345510553456  0.2483263147320927
  0.3335726158164703  0.8333349397828278  0.2508704518883595
  0.6664273822858008  0.8333349413874992  0.2508703476652582
  0.1668950558727004  0.9997565028276805  0.7497539153902515
  0.4999999948435753  0.9978849437489048  0.7500501357210665
  0.8331049488382012  0.9997564974239984  0.7497538676441290
  0.1668522238413152  0.3333346441001411  0.7502488189180950
  0.4999999949848633  0.3333338707654052  0.7504927548778592
  0.8331477791402780  0.3333346456450905  0.7502487884275965
  0.1668963329126757  0.6669092295830769  0.7497542471577540
  0.4999999944310675  0.6687732016049267  0.7500543435243968
  0.8331036640659267  0.6669092391655344  0.7497542056417644
  0.0000000177448742  0.0006608006484755  0.2054660673600017
  0.3321191725007597  0.0004202627552660  0.2062932178519058
  0.6678808187176116  0.0004202642686887  0.2062931494443001
  0.0000000016197124  0.3333331192648546  0.2064880147001137
  0.3338269132773539  0.3333322684777125  0.2074317590056790
  0.6661730888390445  0.3333322670545403  0.2074317533565173
  0.0000000189898935  0.6660077815452975  0.2054648712321331
  0.3321149853614892  0.6662470867790626  0.2062952481119938
  0.6678850007105906  0.6662470832688193  0.2062951753803746
  0.1663725396233114  0.1668934436559735  0.7067537552742754
  0.4999999852896388  0.1674576309348163  0.7086772978729329
  0.8336274743135014  0.1668934392877426  0.7067537068613592
  0.1663662414592365  0.4997755168763707  0.7067556388300523
  0.4999999868637298  0.4992085233041248  0.7086757290034809
  0.8336337696827167  0.4997755248404533  0.7067555894613715
  0.1671759728628993  0.8333324957465589  0.7064984196420044
  0.5000000043519125  0.8333281649173063  0.7185880569520797
  0.8328240149634424  0.8333324995408273  0.7064983910679242
  0.0000000022430599  0.1675708327183054  0.4562437010531384
  0.3330707575442406  0.1670731928264869  0.4570841298324534
  0.6669292416006115  0.1670732005301550  0.4570840993549823
  0.0000000030225311  0.4991189340228809  0.4562433554319098
  0.3330704945889369  0.4996080369012826  0.4570834646460385
  0.6669295049381201  0.4996080255209968  0.4570834333514218
  0.9999999948033067  0.8333216451123169  0.4538416727845068
  0.3271823062675693  0.8333388812516495  0.4528350239530307
  0.6728176992566114  0.8333388646180292  0.4528348602925109
  0.1663644541451271  0.0007690900573008  0.9563908234414705
  0.4999999996361931  0.0012353881397557  0.9584924268863425
  0.8336355420905219  0.0007690921116953  0.9563907691897597
  0.1665747122932323  0.3333283508576720  0.9569637623753928
  0.5000000005585424  0.3333273133566457  0.9578645081214012
  0.8334252860967504  0.3333283513036140  0.9569637288683635
  0.1663636238463735  0.6658950506695979  0.9563881946915045
  0.4999999978569894  0.6654174070894912  0.9584958206773279
  0.8336363715416760  0.6658950489477709  0.9563881427227563
  0.1651110105844409  0.0005150334452191  0.5434683720296895
  0.5000000060739803  0.0023416116345759  0.5460064106514397
  0.8348889668403557  0.0005150264702027  0.5434682720981595
  0.1665434667242590  0.3333349189547269  0.5437495488789833
  0.5000000018795649  0.3333317236364987  0.5445159318140037
  0.8334565333992658  0.3333349190567544  0.5437495160354112
  0.1651216834304892  0.6661540810204719  0.5434711367573259
  0.5000000195245570  0.6643193883722220  0.5460065981923510
  0.8348782985467536  0.6661540884101913  0.5434710388171994
  0.9999999917212586  0.1669975369833956  0.0429833460492958
  0.3328226478960246  0.1670059518293402  0.0439193883289759
  0.6671773566943426  0.1670059581890978  0.0439193486946009
  0.9999999904190313  0.4996726337589366  0.0429816870945178
  0.3328186053561790  0.4996613434101005  0.0439205303309589
  0.6671813970681789  0.4996613331534911  0.0439204909205200
 -0.0000000001263263  0.8333324526002575  0.0411829074789569
  0.3319214072282177  0.8333307284613789  0.0412423838287566
  0.6680785902672842  0.8333307301957988  0.0412422888134852
  0.1666121629053300  0.1670312676764494  0.2934635571817169
  0.4999999992648448  0.1657641179609168  0.2941277635557526
  0.8333878410681786  0.1670312576185006  0.2934635279318140
  0.1666118268838936  0.4996425182619707  0.2934627673411284
  0.4999999991091542  0.5008947115575468  0.2941256846259290
  0.8333881770475803  0.4996425315646512  0.2934627373527923
  0.1651121630510977  0.8333427497507537  0.2895253898673896
  0.4999999994959505  0.8333234159813153  0.2838861606553580
  0.8348878543268010  0.8333427480010760  0.2895252692168152
  0.0000000001321294  0.0000072056293921  0.7928193134256956
  0.3328156512123866  0.0017147321746744  0.7938146196235824
  0.6671843465867241  0.0017147497692083  0.7938145621102751
 -0.0000000020571948  0.3333249150092160  0.7934577043776854
  0.3330297949183210  0.3333318464078423  0.7942034459270696
  0.6669702038622003  0.3333318457572981  0.7942034124088141
 -0.0000000017855358  0.6666708958209331  0.7928178151036793
  0.3328163946412724  0.6649353780127578  0.7938174413486592
  0.6671835993783187  0.6649353609035121  0.7938173869689912
 
  0.00000000E+00  0.00000000E+00  0.00000000E+00
  0.00000000E+00  0.00000000E+00  0.00000000E+00
  0.00000000E+00  0.00000000E+00  0.00000000E+00
  0.00000000E+00  0.00000000E+00  0.00000000E+00
  0.00000000E+00  0.00000000E+00  0.00000000E+00
  0.00000000E+00  0.00000000E+00  0.00000000E+00
  0.00000000E+00  0.00000000E+00  0.00000000E+00
  0.00000000E+00  0.00000000E+00  0.00000000E+00
  0.00000000E+00  0.00000000E+00  0.00000000E+00
  0.00000000E+00  0.00000000E+00  0.00000000E+00
  0.00000000E+00  0.00000000E+00  0.00000000E+00
  0.00000000E+00  0.00000000E+00  0.00000000E+00
  0.00000000E+00  0.00000000E+00  0.00000000E+00
  0.00000000E+00  0.00000000E+00  0.00000000E+00
  0.00000000E+00  0.00000000E+00  0.00000000E+00
  0.00000000E+00  0.00000000E+00  0.00000000E+00
  0.00000000E+00  0.00000000E+00  0.00000000E+00
  0.00000000E+00  0.00000000E+00  0.00000000E+00
  0.00000000E+00  0.00000000E+00  0.00000000E+00
  0.00000000E+00  0.00000000E+00  0.00000000E+00
  0.00000000E+00  0.00000000E+00  0.00000000E+00
  0.00000000E+00  0.00000000E+00  0.00000000E+00
  0.00000000E+00  0.00000000E+00  0.00000000E+00
  0.00000000E+00  0.00000000E+00  0.00000000E+00
  0.00000000E+00  0.00000000E+00  0.00000000E+00
  0.00000000E+00  0.00000000E+00  0.00000000E+00
  0.00000000E+00  0.00000000E+00  0.00000000E+00
  0.00000000E+00  0.00000000E+00  0.00000000E+00
  0.00000000E+00  0.00000000E+00  0.00000000E+00
  0.00000000E+00  0.00000000E+00  0.00000000E+00
  0.00000000E+00  0.00000000E+00  0.00000000E+00
  0.00000000E+00  0.00000000E+00  0.00000000E+00
  0.00000000E+00  0.00000000E+00  0.00000000E+00
  0.00000000E+00  0.00000000E+00  0.00000000E+00
  0.00000000E+00  0.00000000E+00  0.00000000E+00
  0.00000000E+00  0.00000000E+00  0.00000000E+00
  0.00000000E+00  0.00000000E+00  0.00000000E+00
  0.00000000E+00  0.00000000E+00  0.00000000E+00
  0.00000000E+00  0.00000000E+00  0.00000000E+00
  0.00000000E+00  0.00000000E+00  0.00000000E+00
  0.00000000E+00  0.00000000E+00  0.00000000E+00
  0.00000000E+00  0.00000000E+00  0.00000000E+00
  0.00000000E+00  0.00000000E+00  0.00000000E+00
  0.00000000E+00  0.00000000E+00  0.00000000E+00
  0.00000000E+00  0.00000000E+00  0.00000000E+00
  0.00000000E+00  0.00000000E+00  0.00000000E+00
  0.00000000E+00  0.00000000E+00  0.00000000E+00
  0.00000000E+00  0.00000000E+00  0.00000000E+00
  0.00000000E+00  0.00000000E+00  0.00000000E+00
  0.00000000E+00  0.00000000E+00  0.00000000E+00
  0.00000000E+00  0.00000000E+00  0.00000000E+00
  0.00000000E+00  0.00000000E+00  0.00000000E+00
  0.00000000E+00  0.00000000E+00  0.00000000E+00
  0.00000000E+00  0.00000000E+00  0.00000000E+00
  0.00000000E+00  0.00000000E+00  0.00000000E+00
  0.00000000E+00  0.00000000E+00  0.00000000E+00
  0.00000000E+00  0.00000000E+00  0.00000000E+00
  0.00000000E+00  0.00000000E+00  0.00000000E+00
  0.00000000E+00  0.00000000E+00  0.00000000E+00
  0.00000000E+00  0.00000000E+00  0.00000000E+00
  0.00000000E+00  0.00000000E+00  0.00000000E+00
  0.00000000E+00  0.00000000E+00  0.00000000E+00
  0.00000000E+00  0.00000000E+00  0.00000000E+00
  0.00000000E+00  0.00000000E+00  0.00000000E+00
  0.00000000E+00  0.00000000E+00  0.00000000E+00
  0.00000000E+00  0.00000000E+00  0.00000000E+00
  0.00000000E+00  0.00000000E+00  0.00000000E+00
  0.00000000E+00  0.00000000E+00  0.00000000E+00
  0.00000000E+00  0.00000000E+00  0.00000000E+00
  0.00000000E+00  0.00000000E+00  0.00000000E+00
  0.00000000E+00  0.00000000E+00  0.00000000E+00
  0.00000000E+00  0.00000000E+00  0.00000000E+00
  0.00000000E+00  0.00000000E+00  0.00000000E+00
  0.00000000E+00  0.00000000E+00  0.00000000E+00
  0.00000000E+00  0.00000000E+00  0.00000000E+00
  0.00000000E+00  0.00000000E+00  0.00000000E+00
  0.00000000E+00  0.00000000E+00  0.00000000E+00
  0.00000000E+00  0.00000000E+00  0.00000000E+00
  0.00000000E+00  0.00000000E+00  0.00000000E+00
  0.00000000E+00  0.00000000E+00  0.00000000E+00
  0.00000000E+00  0.00000000E+00  0.00000000E+00
  0.00000000E+00  0.00000000E+00  0.00000000E+00
  0.00000000E+00  0.00000000E+00  0.00000000E+00
  0.00000000E+00  0.00000000E+00  0.00000000E+00
  0.00000000E+00  0.00000000E+00  0.00000000E+00
  0.00000000E+00  0.00000000E+00  0.00000000E+00
  0.00000000E+00  0.00000000E+00  0.00000000E+00
  0.00000000E+00  0.00000000E+00  0.00000000E+00
  0.00000000E+00  0.00000000E+00  0.00000000E+00
  0.00000000E+00  0.00000000E+00  0.00000000E+00
  0.00000000E+00  0.00000000E+00  0.00000000E+00
  0.00000000E+00  0.00000000E+00  0.00000000E+00
  0.00000000E+00  0.00000000E+00  0.00000000E+00
  0.00000000E+00  0.00000000E+00  0.00000000E+00
  0.00000000E+00  0.00000000E+00  0.00000000E+00
  0.00000000E+00  0.00000000E+00  0.00000000E+00
  0.00000000E+00  0.00000000E+00  0.00000000E+00
  0.00000000E+00  0.00000000E+00  0.00000000E+00
  0.00000000E+00  0.00000000E+00  0.00000000E+00
  0.00000000E+00  0.00000000E+00  0.00000000E+00
  0.00000000E+00  0.00000000E+00  0.00000000E+00
  0.00000000E+00  0.00000000E+00  0.00000000E+00
  0.00000000E+00  0.00000000E+00  0.00000000E+00
  0.00000000E+00  0.00000000E+00  0.00000000E+00
  0.00000000E+00  0.00000000E+00  0.00000000E+00
  0.00000000E+00  0.00000000E+00  0.00000000E+00
  0.00000000E+00  0.00000000E+00  0.00000000E+00
  0.00000000E+00  0.00000000E+00  0.00000000E+00
