generated by phonopy
   1.00000000000000
    11.4081287385000003    0.0000000000000000    0.0000000000000000
     0.0000000000000000   11.4081287385000003    0.0000000000000000
     0.0000000000000000    0.0000000000000000    9.7477521895999999
   Ti   O
    36    72
Direct
 -0.0000000050767382  0.0002119075028455 -0.0006468545299856
  0.3334292096983933 -0.0001919623329448  0.0000534282128799
  0.6665707946813659 -0.0001919527694693  0.0000533818231798
 -0.0000000047729908  0.3333354425048754 -0.0000835038009105
  0.3333189270410042  0.3333342886641172  0.0006653127979927
  0.6666810771767591  0.3333342905175118  0.0006652887656871
 -0.0000000063724903  0.6664552992386304 -0.0006481064473803
  0.3334276745006676  0.6668558840571125  0.0000543062291219
  0.6665723297051339  0.6668558720539889  0.0000542599703370
  0.1666635594949667  0.1666085950562870  0.5001339817967784
  0.5000000016849051  0.1663263571140409  0.5026921140721957
  0.8333364412859693  0.1666085959155974  0.5001339542266985
  0.1666627661134315  0.5000622063876451  0.5001339770369557
  0.5000000006233508  0.5003411899110766  0.5026913485855621
  0.8333372298919621  0.5000622087858845  0.5001339484846250
  0.1660379148041564  0.8333351093752388  0.4980601371501847
  0.5000000161926489  0.8333314554022246  0.4970474606182085
  0.8339620790711599  0.8333351099957240  0.4980600390130818
  0.0000000061060034  0.1666248988385874  0.2498640588183585
  0.3336868052501966  0.1664176796099146  0.2504695652973648
  0.6663131934176229  0.1664176799566157  0.2504695477740126
  0.0000000016081173  0.5000414427898255  0.2498640791634394
  0.3336870437671598  0.5002513890539846  0.2504711417046346
  0.6663129491489975  0.5002513894683487  0.2504711247264148
  0.0000000138451393  0.8333342097221070  0.2480692904878237
  0.3334362838227130  0.8333351648392772  0.2503648035701830
  0.6665637145344372  0.8333351644341487  0.2503647027191393
  0.1668728470278101 -0.0002358106432815  0.7497432146600420
  0.4999999959222587 -0.0019643257361900  0.7503498779516732
  0.8331271540238135 -0.0002358206568494  0.7497431679706648
  0.1668119028866156  0.3333342843885391  0.7501732725182728
  0.4999999974436315  0.3333336242577425  0.7508144781396879
  0.8331881011779163  0.3333342862289974  0.7501732449226133
  0.1668740257902995  0.6669006841544556  0.7497440342419536
  0.4999999955149076  0.6686222463734205  0.7503540246074439
  0.8331259729250428  0.6669006946465493  0.7497439876934203
  0.0000000128839576  0.0007029012638819  0.2054297081040406
  0.3319907871147927  0.0004775493661685  0.2062309934278554
  0.6680092062524859  0.0004775551522949  0.2062309278154131
 -0.0000000011039467  0.3333328896648420  0.2065031988243110
  0.3336825014765344  0.3333330494497280  0.2074092831373462
  0.6663174975079166  0.3333330473867624  0.2074092687707144
  0.0000000161823360  0.6659646947467618  0.2054289334316328
  0.3319859411803465  0.6661904900457740  0.2062322358031851
  0.6680140498429639  0.6661904860842880  0.2062321706643577
  0.1663818038554912  0.1668878173680164  0.7066941439769860
  0.4999999893397007  0.1676599642544098  0.7089716069432531
  0.8336182091540987  0.1668878130521892  0.7066940998114202
  0.1663776105323338  0.4997803307740516  0.7066962663059581
  0.4999999888484667  0.4990067809506705  0.7089709179770755
  0.8336223988595036  0.4997803363885130  0.7066962224665460
  0.1670743642441923  0.8333319432242287  0.7064189690172380
  0.5000000036905266  0.8333284677404115  0.7196288366226935
  0.8329256248714446  0.8333319450949462  0.7064189466722921
  0.0000000019857348  0.1675204901627319  0.4563362828757422
  0.3330593503193690  0.1671364161418775  0.4570962333615016
  0.6669406493163593  0.1671364234024456  0.4570962033362408
  0.0000000017772771  0.4991673432486009  0.4563363420497796
  0.3330590825834240  0.4995465524077390  0.4570958308824404
  0.6669409124153737  0.4995465414813574  0.4570958010656477
 -0.0000000037134130  0.8333218649799349  0.4537356079855683
  0.3267231014328701  0.8333348134507905  0.4522690411036554
  0.6732769065403388  0.8333348167034171  0.4522688829569491
  0.1663374955370664  0.0008077763572417  0.9563870423145702
  0.5000000005193977  0.0013286511553287  0.9587309652535854
  0.8336625022929013  0.0008077793658398  0.9563869920069569
  0.1665207037149639  0.3333283134263413  0.9569298117651615
  0.4999999995240940  0.3333270622076441  0.9579813640724187
  0.8334792940742491  0.3333283144422519  0.9569297816273270
  0.1663365175394087  0.6658569108675430  0.9563848919455780
  0.4999999979500908  0.6653240902248611  0.9587347703701447
  0.8336634799823791  0.6658569084999302  0.9563848407424100
  0.1650615021693169  0.0004919571914621  0.5434478513333759
  0.5000000116248379  0.0029089081883362  0.5466860039021652
  0.8349384816235511  0.0004919526257330  0.5434477567375576
  0.1664725757899096  0.3333348563934881  0.5436781769125240
  0.4999999998368843  0.3333327047412440  0.5446078238681428
  0.8335274256287949  0.3333348568561357  0.5436781450806848
  0.1650699354480475  0.6661765957850562  0.5434513283667450
  0.5000000109609717  0.6637539607436806  0.5466870596383284
  0.8349300472157555  0.6661766028653638  0.5434512319728497
 -0.0000000043160800  0.1670327169481760  0.0430417203440471
  0.3327947019308720  0.1670440804217452  0.0439131996911370
  0.6672053038310426  0.1670440859743946  0.0439131614940383
 -0.0000000070901137  0.4996368247006709  0.0430409551932018
  0.3327909576755422  0.4996238606575221  0.0439141292056457
  0.6672090427920750  0.4996238528890086  0.0439140924519878
  0.0000000022126945  0.8333320321649987  0.0410707450792300
  0.3318605773473686  0.8333311481710356  0.0410255688430249
  0.6681394191940810  0.8333311494698249  0.0410254784734540
  0.1665966392851807  0.1670206201515549  0.2935262681622267
  0.5000000007060310  0.1658520186919432  0.2941935957605372
  0.8334033633478066  0.1670206112783776  0.2935262394956599
  0.1665963599898214  0.4996543908183109  0.2935258001379324
  0.4999999975975387  0.5008127264756111  0.2941918835494536
  0.8334036398839878  0.4996544009409726  0.2935257704185006
  0.1649588022092676  0.8333421053860465  0.2892123791432510
  0.4999999959881328  0.8333253822652436  0.2830255831110139
  0.8350412157517723  0.8333421034195463  0.2892122570327808
  0.0000000005730056  0.0001921870134600  0.7928485843337489
  0.3327742995479412  0.0018095478076186  0.7938559542705960
  0.6672256983265762  0.0018095645819864  0.7938558984224805
  0.0000000001365880  0.3333250754452601  0.7934375248782697
  0.3329466898366927  0.3333303578581380  0.7942615971462402
  0.6670533086244179  0.3333303577208057  0.7942615628659431
  0.0000000008052125  0.6664781257731283  0.7928478431239725
  0.3327748415918905  0.6648401930544238  0.7938588148869793
  0.6672251534412159  0.6648401748893007  0.7938587602118800
