ti2 o4                                  
   1.00000000000000     
     5.5096170122067019   -0.0510263154701279    0.0000000043150893
     2.8951292397929440    4.6879323791083598    0.0000000043144052
    -4.2023728032480197   -2.3184528538188385    2.7061638254377907
   Ti   O 
     2     4
Direct
  0.7500000149999977  0.2499999719999977  0.4999999830000021
  0.0000000000000000 -0.0000000000000000  0.0000000000000000
  0.9586507550133105  0.4586507010133131  0.4999999829984608
  0.7913492379866924  0.7913492319866919  0.0000000000015414
  0.5413492459866860  0.0413492189866875  0.4999999830015435
  0.2086507690133115  0.2086507540133138 -0.0000000000015414
 
  0.00000000E+00  0.00000000E+00  0.00000000E+00
  0.00000000E+00  0.00000000E+00  0.00000000E+00
  0.00000000E+00  0.00000000E+00  0.00000000E+00
  0.00000000E+00  0.00000000E+00  0.00000000E+00
  0.00000000E+00  0.00000000E+00  0.00000000E+00
  0.00000000E+00  0.00000000E+00  0.00000000E+00
