ti2 o4
1.0
        5.5664143562         0.0000000000         0.0000000000
        2.9685838263         4.7087661708         0.0000000000
       -4.2674987656        -2.3543829058         2.6889224986
   Ti    O
    2    4
Direct
     0.750000015         0.249999972         0.499999983
     0.000000000         0.000000000         0.000000000
     0.956162997         0.456162943         0.499999983
     0.793836996         0.793836990         0.000000000
     0.543837004         0.043836977         0.499999983
     0.206163011         0.206162996         0.000000000
