generated by phonopy                    
   1.00000000000000     
    11.4081287385000003    0.0000000000000000    0.0000000000000000
     0.0000000000000000   11.4081287385000003    0.0000000000000000
     0.0000000000000000    0.0000000000000000    9.7477521895999999
   Ti   O 
    36    72
Direct
  0.0000000000000000  0.0000000000000000  0.0000000000000000
  0.3333333333333357  0.0000000000000000  0.0000000000000000
  0.6666666666666643  0.0000000000000000  0.0000000000000000
  0.0000000000000000  0.3333333333333357  0.0000000000000000
  0.3333333333333357  0.3333333333333357  0.0000000000000000
  0.6666666666666643  0.3333333333333357  0.0000000000000000
  0.0000000000000000  0.6666666666666643  0.0000000000000000
  0.3333333333333357  0.6666666666666643  0.0000000000000000
  0.6666666666666643  0.6666666666666643  0.0000000000000000
  0.1666666666666643  0.1666666666666643  0.5000000000000000
  0.5000000000000000  0.1666666666666643  0.5000000000000000
  0.8333333333333357  0.1666666666666643  0.5000000000000000
  0.1666666666666643  0.5000000000000000  0.5000000000000000
  0.5000000000000000  0.5000000000000000  0.5000000000000000
  0.8333333333333357  0.5000000000000000  0.5000000000000000
  0.1666666666666643  0.8333333333333357  0.5000000000000000
  0.5000000000000000  0.8333333333333357  0.5000000000000000
  0.8333333333333357  0.8333333333333357  0.5000000000000000
  0.0000000000000000  0.1666666666666643  0.2500000000000000
  0.3333333333333357  0.1666666666666643  0.2500000000000000
  0.6666666666666643  0.1666666666666643  0.2500000000000000
  0.0000000000000000  0.5000000000000000  0.2500000000000000
  0.3333333333333357  0.5000000000000000  0.2500000000000000
  0.6666666666666643  0.5000000000000000  0.2500000000000000
  0.0000000000000000  0.8333333333333357  0.2500000000000000
  0.3333333333333357  0.8333333333333357  0.2500000000000000
  0.6666666666666643  0.8333333333333357  0.2500000000000000
  0.1666666666666643  0.0000000000000000  0.7499999759999980
  0.5000000000000000  0.0000000000000000  0.7499999759999980
  0.8333333333333357  0.0000000000000000  0.7499999759999980
  0.1666666666666643  0.3333333333333357  0.7499999759999980
  0.5000000000000000  0.3333333333333357  0.7499999759999980
  0.8333333333333357  0.3333333333333357  0.7499999759999980
  0.1666666666666643  0.6666666666666643  0.7499999759999980
  0.5000000000000000  0.6666666666666643  0.7499999759999980
  0.8333333333333357  0.6666666666666643  0.7499999759999980
  0.0000000000000000  0.0000000000000000  0.2061630079999972
  0.3333333333333357  0.0000000000000000  0.2061630079999972
  0.6666666666666643  0.0000000000000000  0.2061630079999972
  0.0000000000000000  0.3333333333333357  0.2061630079999972
  0.3333333333333357  0.3333333333333357  0.2061630079999972
  0.6666666666666643  0.3333333333333357  0.2061630079999972
  0.0000000000000000  0.6666666666666643  0.2061630079999972
  0.3333333333333357  0.6666666666666643  0.2061630079999972
  0.6666666666666643  0.6666666666666643  0.2061630079999972
  0.1666666666666643  0.1666666666666643  0.7061630079999972
  0.5000000000000000  0.1666666666666643  0.7061630079999972
  0.8333333333333357  0.1666666666666643  0.7061630079999972
  0.1666666666666643  0.5000000000000000  0.7061630079999972
  0.5000000000000000  0.5000000000000000  0.7061630079999972
  0.8333333333333357  0.5000000000000000  0.7061630079999972
  0.1666666666666643  0.8333333333333357  0.7061630079999972
  0.5000000000000000  0.8333333333333357  0.7061630079999972
  0.8333333333333357  0.8333333333333357  0.7061630079999972
  0.0000000000000000  0.1666666666666643  0.4561629829999987
  0.3333333333333357  0.1666666666666643  0.4561629829999987
  0.6666666666666643  0.1666666666666643  0.4561629829999987
  0.0000000000000000  0.5000000000000000  0.4561629829999987
  0.3333333333333357  0.5000000000000000  0.4561629829999987
  0.6666666666666643  0.5000000000000000  0.4561629829999987
  0.0000000000000000  0.8333333333333357  0.4561629829999987
  0.3333333333333357  0.8333333333333357  0.4561629829999987
  0.6666666666666643  0.8333333333333357  0.4561629829999987
  0.1666666666666643  0.0000000000000000  0.9561630319999992
  0.5000000000000000  0.0000000000000000  0.9561630319999992
  0.8333333333333357  0.0000000000000000  0.9561630319999992
  0.1666666666666643  0.3333333333333357  0.9561630319999992
  0.5000000000000000  0.3333333333333357  0.9561630319999992
  0.8333333333333357  0.3333333333333357  0.9561630319999992
  0.1666666666666643  0.6666666666666643  0.9561630319999992
  0.5000000000000000  0.6666666666666643  0.9561630319999992
  0.8333333333333357  0.6666666666666643  0.9561630319999992
  0.1666666666666643  0.0000000000000000  0.5438370170000013
  0.5000000000000000  0.0000000000000000  0.5438370170000013
  0.8333333333333357  0.0000000000000000  0.5438370170000013
  0.1666666666666643  0.3333333333333357  0.5438370170000013
  0.5000000000000000  0.3333333333333357  0.5438370170000013
  0.8333333333333357  0.3333333333333357  0.5438370170000013
  0.1666666666666643  0.6666666666666643  0.5438370170000013
  0.5000000000000000  0.6666666666666643  0.5438370170000013
  0.8333333333333357  0.6666666666666643  0.5438370170000013
  0.0000000000000000  0.1666666666666643  0.0438369949999995
  0.3333333333333357  0.1666666666666643  0.0438369949999995
  0.6666666666666643  0.1666666666666643  0.0438369949999995
  0.0000000000000000  0.5000000000000000  0.0438369949999995
  0.3333333333333357  0.5000000000000000  0.0438369949999995
  0.6666666666666643  0.5000000000000000  0.0438369949999995
  0.0000000000000000  0.8333333333333357  0.0438369949999995
  0.3333333333333357  0.8333333333333357  0.0438369949999995
  0.6666666666666643  0.8333333333333357  0.0438369949999995
  0.1666666666666643  0.1666666666666643  0.2938370170000013
  0.5000000000000000  0.1666666666666643  0.2938370170000013
  0.8333333333333357  0.1666666666666643  0.2938370170000013
  0.1666666666666643  0.5000000000000000  0.2938370170000013
  0.5000000000000000  0.5000000000000000  0.2938370170000013
  0.8333333333333357  0.5000000000000000  0.2938370170000013
  0.1666666666666643  0.8333333333333357  0.2938370170000013
  0.5000000000000000  0.8333333333333357  0.2938370170000013
  0.8333333333333357  0.8333333333333357  0.2938370170000013
  0.0000000000000000  0.0000000000000000  0.7938369920000028
  0.3333333333333357  0.0000000000000000  0.7938369920000028
  0.6666666666666643  0.0000000000000000  0.7938369920000028
  0.0000000000000000  0.3333333333333357  0.7938369920000028
  0.3333333333333357  0.3333333333333357  0.7938369920000028
  0.6666666666666643  0.3333333333333357  0.7938369920000028
  0.0000000000000000  0.6666666666666643  0.7938369920000028
  0.3333333333333357  0.6666666666666643  0.7938369920000028
  0.6666666666666643  0.6666666666666643  0.7938369920000028
 
  0.00000000E+00  0.00000000E+00  0.00000000E+00
  0.00000000E+00  0.00000000E+00  0.00000000E+00
  0.00000000E+00  0.00000000E+00  0.00000000E+00
  0.00000000E+00  0.00000000E+00  0.00000000E+00
  0.00000000E+00  0.00000000E+00  0.00000000E+00
  0.00000000E+00  0.00000000E+00  0.00000000E+00
  0.00000000E+00  0.00000000E+00  0.00000000E+00
  0.00000000E+00  0.00000000E+00  0.00000000E+00
  0.00000000E+00  0.00000000E+00  0.00000000E+00
  0.00000000E+00  0.00000000E+00  0.00000000E+00
  0.00000000E+00  0.00000000E+00  0.00000000E+00
  0.00000000E+00  0.00000000E+00  0.00000000E+00
  0.00000000E+00  0.00000000E+00  0.00000000E+00
  0.00000000E+00  0.00000000E+00  0.00000000E+00
  0.00000000E+00  0.00000000E+00  0.00000000E+00
  0.00000000E+00  0.00000000E+00  0.00000000E+00
  0.00000000E+00  0.00000000E+00  0.00000000E+00
  0.00000000E+00  0.00000000E+00  0.00000000E+00
  0.00000000E+00  0.00000000E+00  0.00000000E+00
  0.00000000E+00  0.00000000E+00  0.00000000E+00
  0.00000000E+00  0.00000000E+00  0.00000000E+00
  0.00000000E+00  0.00000000E+00  0.00000000E+00
  0.00000000E+00  0.00000000E+00  0.00000000E+00
  0.00000000E+00  0.00000000E+00  0.00000000E+00
  0.00000000E+00  0.00000000E+00  0.00000000E+00
  0.00000000E+00  0.00000000E+00  0.00000000E+00
  0.00000000E+00  0.00000000E+00  0.00000000E+00
  0.00000000E+00  0.00000000E+00  0.00000000E+00
  0.00000000E+00  0.00000000E+00  0.00000000E+00
  0.00000000E+00  0.00000000E+00  0.00000000E+00
  0.00000000E+00  0.00000000E+00  0.00000000E+00
  0.00000000E+00  0.00000000E+00  0.00000000E+00
  0.00000000E+00  0.00000000E+00  0.00000000E+00
  0.00000000E+00  0.00000000E+00  0.00000000E+00
  0.00000000E+00  0.00000000E+00  0.00000000E+00
  0.00000000E+00  0.00000000E+00  0.00000000E+00
  0.00000000E+00  0.00000000E+00  0.00000000E+00
  0.00000000E+00  0.00000000E+00  0.00000000E+00
  0.00000000E+00  0.00000000E+00  0.00000000E+00
  0.00000000E+00  0.00000000E+00  0.00000000E+00
  0.00000000E+00  0.00000000E+00  0.00000000E+00
  0.00000000E+00  0.00000000E+00  0.00000000E+00
  0.00000000E+00  0.00000000E+00  0.00000000E+00
  0.00000000E+00  0.00000000E+00  0.00000000E+00
  0.00000000E+00  0.00000000E+00  0.00000000E+00
  0.00000000E+00  0.00000000E+00  0.00000000E+00
  0.00000000E+00  0.00000000E+00  0.00000000E+00
  0.00000000E+00  0.00000000E+00  0.00000000E+00
  0.00000000E+00  0.00000000E+00  0.00000000E+00
  0.00000000E+00  0.00000000E+00  0.00000000E+00
  0.00000000E+00  0.00000000E+00  0.00000000E+00
  0.00000000E+00  0.00000000E+00  0.00000000E+00
  0.00000000E+00  0.00000000E+00  0.00000000E+00
  0.00000000E+00  0.00000000E+00  0.00000000E+00
  0.00000000E+00  0.00000000E+00  0.00000000E+00
  0.00000000E+00  0.00000000E+00  0.00000000E+00
  0.00000000E+00  0.00000000E+00  0.00000000E+00
  0.00000000E+00  0.00000000E+00  0.00000000E+00
  0.00000000E+00  0.00000000E+00  0.00000000E+00
  0.00000000E+00  0.00000000E+00  0.00000000E+00
  0.00000000E+00  0.00000000E+00  0.00000000E+00
  0.00000000E+00  0.00000000E+00  0.00000000E+00
  0.00000000E+00  0.00000000E+00  0.00000000E+00
  0.00000000E+00  0.00000000E+00  0.00000000E+00
  0.00000000E+00  0.00000000E+00  0.00000000E+00
  0.00000000E+00  0.00000000E+00  0.00000000E+00
  0.00000000E+00  0.00000000E+00  0.00000000E+00
  0.00000000E+00  0.00000000E+00  0.00000000E+00
  0.00000000E+00  0.00000000E+00  0.00000000E+00
  0.00000000E+00  0.00000000E+00  0.00000000E+00
  0.00000000E+00  0.00000000E+00  0.00000000E+00
  0.00000000E+00  0.00000000E+00  0.00000000E+00
  0.00000000E+00  0.00000000E+00  0.00000000E+00
  0.00000000E+00  0.00000000E+00  0.00000000E+00
  0.00000000E+00  0.00000000E+00  0.00000000E+00
  0.00000000E+00  0.00000000E+00  0.00000000E+00
  0.00000000E+00  0.00000000E+00  0.00000000E+00
  0.00000000E+00  0.00000000E+00  0.00000000E+00
  0.00000000E+00  0.00000000E+00  0.00000000E+00
  0.00000000E+00  0.00000000E+00  0.00000000E+00
  0.00000000E+00  0.00000000E+00  0.00000000E+00
  0.00000000E+00  0.00000000E+00  0.00000000E+00
  0.00000000E+00  0.00000000E+00  0.00000000E+00
  0.00000000E+00  0.00000000E+00  0.00000000E+00
  0.00000000E+00  0.00000000E+00  0.00000000E+00
  0.00000000E+00  0.00000000E+00  0.00000000E+00
  0.00000000E+00  0.00000000E+00  0.00000000E+00
  0.00000000E+00  0.00000000E+00  0.00000000E+00
  0.00000000E+00  0.00000000E+00  0.00000000E+00
  0.00000000E+00  0.00000000E+00  0.00000000E+00
  0.00000000E+00  0.00000000E+00  0.00000000E+00
  0.00000000E+00  0.00000000E+00  0.00000000E+00
  0.00000000E+00  0.00000000E+00  0.00000000E+00
  0.00000000E+00  0.00000000E+00  0.00000000E+00
  0.00000000E+00  0.00000000E+00  0.00000000E+00
  0.00000000E+00  0.00000000E+00  0.00000000E+00
  0.00000000E+00  0.00000000E+00  0.00000000E+00
  0.00000000E+00  0.00000000E+00  0.00000000E+00
  0.00000000E+00  0.00000000E+00  0.00000000E+00
  0.00000000E+00  0.00000000E+00  0.00000000E+00
  0.00000000E+00  0.00000000E+00  0.00000000E+00
  0.00000000E+00  0.00000000E+00  0.00000000E+00
  0.00000000E+00  0.00000000E+00  0.00000000E+00
  0.00000000E+00  0.00000000E+00  0.00000000E+00
  0.00000000E+00  0.00000000E+00  0.00000000E+00
  0.00000000E+00  0.00000000E+00  0.00000000E+00
  0.00000000E+00  0.00000000E+00  0.00000000E+00
  0.00000000E+00  0.00000000E+00  0.00000000E+00
