generated by phonopy                    
   1.00000000000000     
    11.4081287385000003    0.0000000000000000    0.0000000000000000
     0.0000000000000000   11.4081287385000003    0.0000000000000000
     0.0000000000000000    0.0000000000000000    9.7477521895999999
   Ti   O 
    36    72
Direct
 -0.0000000070941245 -0.0000864765971354  0.0000162736995635
  0.3333727635411005 -0.0000383832444429 -0.0000004123564073
  0.6666272549473649 -0.0000383994056021 -0.0000003924615551
 -0.0000000034745832  0.3333345693792719  0.0000004966914628
  0.3334200543329163  0.3333338372351942 -0.0000161920688664
  0.6665799580669889  0.3333338586398161 -0.0000162038714305
 -0.0000000039263185  0.6667521096182841  0.0000166643383337
  0.3333720910182825  0.6667048551446504 -0.0000002242788198
  0.6666279191564891  0.6667048631433028 -0.0000002002890716
  0.1666990760268031  0.1666335801458120  0.5000001887568077
  0.5000000067889551  0.1667232901088889  0.5002629275965580
  0.8333009257484113  0.1666335740324545  0.5000001696115168
  0.1666983601313598  0.5000329569838955  0.4999995485065123
  0.5000000129596746  0.4999412741055835  0.5002621160874907
  0.8333016540329139  0.5000329639274875  0.4999995321251194
  0.1666080674923012  0.8333335544917376  0.4997380657486656
  0.4999999730586214  0.8333339471598069  0.5000002944396176
  0.8333918917006828  0.8333335304165133  0.4997380393519290
 -0.0000000022052036  0.1666182946151656  0.2499439753201501
  0.3334022995735643  0.1666316520580911  0.2499371716776198
  0.6665977117791603  0.1666316352506202  0.2499371408605889
  0.0000000240164105  0.5000476547363094  0.2499445405627873
  0.3334030195605177  0.5000348808773167  0.2499377548052829
  0.6665969695826507  0.5000348761791463  0.2499377646816691
 -0.0000000147509495  0.8333345389547906  0.2500333902238608
  0.3334049033852142  0.8333335919278309  0.2497492107816974
  0.6665950555104528  0.8333335780167154  0.2497492197262206
  0.1667003350354003 -0.0000685967479469  0.7500632149772787
  0.5000000157635623 -0.0000716850484306  0.7502509637548237
  0.8332996673400761 -0.0000686074533480  0.7500632184665738
  0.1667136955040094  0.3333338778216000  0.7500554371859096
  0.4999999992481459  0.3333345552506302  0.7499657740675963
  0.8332863053799162  0.3333338692875648  0.7500553974327351
  0.1667010277254783  0.6667350258580769  0.7500629321447265
  0.5000000018776622  0.6667368762425816  0.7502504601709408
  0.8332989900350242  0.6667350246263435  0.7500629076936373
 -0.0000000182355189  0.0000748785519849  0.2067617685919101
  0.3331508442209080  0.0001478093992506  0.2066666779907956
  0.6668491651929106  0.0001477999414239  0.2066666747068729
 -0.0000000234396829  0.3333319478437752  0.2067719040620615
  0.3333057855809125  0.3333325659412451  0.2067615547142657
  0.6666942444318695  0.3333325613673758  0.2067615440665640
 -0.0000000158745829  0.6665935365666846  0.2067630467102800
  0.3331522844496312  0.6665193942414613  0.2066659969619836
  0.6668477215217744  0.6665193813235637  0.2066660075869527
  0.1666215641300788  0.1667192503561323  0.7067758486440809
  0.5000000136968027  0.1669745056860994  0.7074265730739598
  0.8333784322609421  0.1667192451014340  0.7067758161534866
  0.1666229602446312  0.4999486117939625  0.7067764886366987
  0.4999999899092767  0.4996935550161766  0.7074266943256484
  0.8333770663809332  0.4999485989268063  0.7067764329680318
  0.1666358500104740  0.8333324368263312  0.7069087131788642
  0.4999999990716940  0.8333317894247460  0.7094728354484804
  0.8333641430217016  0.8333324232743389  0.7069086924062740
  0.0000000117735565  0.1667227057947827  0.4567701150569879
  0.3332512073776521  0.1667768750818527  0.4567120471524584
  0.6667487913769513  0.1667768715426879  0.4567120360612473
  0.0000000032997106  0.4999491409426244  0.4567694832861419
  0.3332504164652839  0.4998936532156021  0.4567130636317075
  0.6667496100644207  0.4998936525695768  0.4567130624403892
 -0.0000000171836926  0.8333285932286242  0.4567917372239528
  0.3325641456713400  0.8333291871850255  0.4557533034004895
  0.6674357867228049  0.8333291782845818  0.4557533072357993
  0.1666289809879218  0.0000456019975518  0.9568374571555908
  0.5000000093330441  0.0001688497185669  0.9571754998533936
  0.8333710269324166  0.0000455858416275  0.9568374326352941
  0.1666522243093922  0.3333300761236903  0.9567866812531998
  0.5000000121005957  0.3333286167209923  0.9568348617187379
  0.8333477712552400  0.3333300935387629  0.9567866332926122
  0.1666282904228653  0.6666245790489657  0.9568363736143657
  0.5000000173814044  0.6665025357933996  0.9571758888820940
  0.8333717005803154  0.6666245785444798  0.9568363443343417
  0.1665647787272530  0.0000809574458311  0.5432875974823879
  0.5000000084017099  0.0007660912521890  0.5442465858109058
  0.8334352070598253  0.0000809466062645  0.5432875603718629
  0.1666188956046446  0.3333325873799936  0.5432305138235805
  0.4999999965693296  0.3333315374546342  0.5432075258113549
  0.8333811169376230  0.3333325876370116  0.5432304769297347
  0.1665631689545131  0.6665863367349825  0.5432884432923513
  0.4999999839051620  0.6658981927842498  0.5442462538972200
  0.8334368446142824  0.6665863095839694  0.5432884074613119
 -0.0000000180593020  0.1666836236432343  0.0432121868258104
  0.3332842298578859  0.1667068654848560  0.0431636983271042
  0.6667157981385603  0.1667068649563132  0.0431636829099141
 -0.0000000066844012  0.4999848367775314  0.0432133896562015
  0.3332829031849031  0.4999610111361781  0.0431632199697651
  0.6667171153394952  0.4999610208237398  0.0431632176894885
 -0.0000000098193003  0.8333318792046435  0.0431643013867861
  0.3331605760338341  0.8333324195593255  0.0428239577915625
  0.6668394242808026  0.8333324190996881  0.0428239810990776
  0.1666159269308275  0.1667187045711852  0.2932241272347093
  0.4999999974292760  0.1667058081820658  0.2930914540094917
  0.8333840883071488  0.1667186918016013  0.2932241113390104
  0.1666165549966574  0.4999518146904937  0.2932228628852365
  0.5000000043547744  0.4999660275919283  0.2930916161511723
  0.8333834638894186  0.4999518150802562  0.2932228705478889
  0.1663605947188613  0.8333300247031491  0.2925729162652206
  0.4999999653528966  0.8333292988160051  0.2905280218202015
  0.8336393564123744  0.8333300212010746  0.2925729266596372
  0.0000000070895700  0.0000241963268787  0.7932384720118797
  0.3331835982055437  0.0001773505978246  0.7933326225916367
  0.6668164142916108  0.0001773357023003  0.7933326138763477
 -0.0000000090237642  0.3333286791259642  0.7932287574920749
  0.3332576615191296  0.3333300126966140  0.7932381401399289
  0.6667423509340866  0.3333300310276202  0.7932381122311561
 -0.0000000008801768  0.6666474908303500  0.7932379537792421
  0.3331841921611354  0.6664924982587960  0.7933339602872763
  0.6668158259488999  0.6664924967364936  0.7933339475238859
 
  0.00000000E+00  0.00000000E+00  0.00000000E+00
  0.00000000E+00  0.00000000E+00  0.00000000E+00
  0.00000000E+00  0.00000000E+00  0.00000000E+00
  0.00000000E+00  0.00000000E+00  0.00000000E+00
  0.00000000E+00  0.00000000E+00  0.00000000E+00
  0.00000000E+00  0.00000000E+00  0.00000000E+00
  0.00000000E+00  0.00000000E+00  0.00000000E+00
  0.00000000E+00  0.00000000E+00  0.00000000E+00
  0.00000000E+00  0.00000000E+00  0.00000000E+00
  0.00000000E+00  0.00000000E+00  0.00000000E+00
  0.00000000E+00  0.00000000E+00  0.00000000E+00
  0.00000000E+00  0.00000000E+00  0.00000000E+00
  0.00000000E+00  0.00000000E+00  0.00000000E+00
  0.00000000E+00  0.00000000E+00  0.00000000E+00
  0.00000000E+00  0.00000000E+00  0.00000000E+00
  0.00000000E+00  0.00000000E+00  0.00000000E+00
  0.00000000E+00  0.00000000E+00  0.00000000E+00
  0.00000000E+00  0.00000000E+00  0.00000000E+00
  0.00000000E+00  0.00000000E+00  0.00000000E+00
  0.00000000E+00  0.00000000E+00  0.00000000E+00
  0.00000000E+00  0.00000000E+00  0.00000000E+00
  0.00000000E+00  0.00000000E+00  0.00000000E+00
  0.00000000E+00  0.00000000E+00  0.00000000E+00
  0.00000000E+00  0.00000000E+00  0.00000000E+00
  0.00000000E+00  0.00000000E+00  0.00000000E+00
  0.00000000E+00  0.00000000E+00  0.00000000E+00
  0.00000000E+00  0.00000000E+00  0.00000000E+00
  0.00000000E+00  0.00000000E+00  0.00000000E+00
  0.00000000E+00  0.00000000E+00  0.00000000E+00
  0.00000000E+00  0.00000000E+00  0.00000000E+00
  0.00000000E+00  0.00000000E+00  0.00000000E+00
  0.00000000E+00  0.00000000E+00  0.00000000E+00
  0.00000000E+00  0.00000000E+00  0.00000000E+00
  0.00000000E+00  0.00000000E+00  0.00000000E+00
  0.00000000E+00  0.00000000E+00  0.00000000E+00
  0.00000000E+00  0.00000000E+00  0.00000000E+00
  0.00000000E+00  0.00000000E+00  0.00000000E+00
  0.00000000E+00  0.00000000E+00  0.00000000E+00
  0.00000000E+00  0.00000000E+00  0.00000000E+00
  0.00000000E+00  0.00000000E+00  0.00000000E+00
  0.00000000E+00  0.00000000E+00  0.00000000E+00
  0.00000000E+00  0.00000000E+00  0.00000000E+00
  0.00000000E+00  0.00000000E+00  0.00000000E+00
  0.00000000E+00  0.00000000E+00  0.00000000E+00
  0.00000000E+00  0.00000000E+00  0.00000000E+00
  0.00000000E+00  0.00000000E+00  0.00000000E+00
  0.00000000E+00  0.00000000E+00  0.00000000E+00
  0.00000000E+00  0.00000000E+00  0.00000000E+00
  0.00000000E+00  0.00000000E+00  0.00000000E+00
  0.00000000E+00  0.00000000E+00  0.00000000E+00
  0.00000000E+00  0.00000000E+00  0.00000000E+00
  0.00000000E+00  0.00000000E+00  0.00000000E+00
  0.00000000E+00  0.00000000E+00  0.00000000E+00
  0.00000000E+00  0.00000000E+00  0.00000000E+00
  0.00000000E+00  0.00000000E+00  0.00000000E+00
  0.00000000E+00  0.00000000E+00  0.00000000E+00
  0.00000000E+00  0.00000000E+00  0.00000000E+00
  0.00000000E+00  0.00000000E+00  0.00000000E+00
  0.00000000E+00  0.00000000E+00  0.00000000E+00
  0.00000000E+00  0.00000000E+00  0.00000000E+00
  0.00000000E+00  0.00000000E+00  0.00000000E+00
  0.00000000E+00  0.00000000E+00  0.00000000E+00
  0.00000000E+00  0.00000000E+00  0.00000000E+00
  0.00000000E+00  0.00000000E+00  0.00000000E+00
  0.00000000E+00  0.00000000E+00  0.00000000E+00
  0.00000000E+00  0.00000000E+00  0.00000000E+00
  0.00000000E+00  0.00000000E+00  0.00000000E+00
  0.00000000E+00  0.00000000E+00  0.00000000E+00
  0.00000000E+00  0.00000000E+00  0.00000000E+00
  0.00000000E+00  0.00000000E+00  0.00000000E+00
  0.00000000E+00  0.00000000E+00  0.00000000E+00
  0.00000000E+00  0.00000000E+00  0.00000000E+00
  0.00000000E+00  0.00000000E+00  0.00000000E+00
  0.00000000E+00  0.00000000E+00  0.00000000E+00
  0.00000000E+00  0.00000000E+00  0.00000000E+00
  0.00000000E+00  0.00000000E+00  0.00000000E+00
  0.00000000E+00  0.00000000E+00  0.00000000E+00
  0.00000000E+00  0.00000000E+00  0.00000000E+00
  0.00000000E+00  0.00000000E+00  0.00000000E+00
  0.00000000E+00  0.00000000E+00  0.00000000E+00
  0.00000000E+00  0.00000000E+00  0.00000000E+00
  0.00000000E+00  0.00000000E+00  0.00000000E+00
  0.00000000E+00  0.00000000E+00  0.00000000E+00
  0.00000000E+00  0.00000000E+00  0.00000000E+00
  0.00000000E+00  0.00000000E+00  0.00000000E+00
  0.00000000E+00  0.00000000E+00  0.00000000E+00
  0.00000000E+00  0.00000000E+00  0.00000000E+00
  0.00000000E+00  0.00000000E+00  0.00000000E+00
  0.00000000E+00  0.00000000E+00  0.00000000E+00
  0.00000000E+00  0.00000000E+00  0.00000000E+00
  0.00000000E+00  0.00000000E+00  0.00000000E+00
  0.00000000E+00  0.00000000E+00  0.00000000E+00
  0.00000000E+00  0.00000000E+00  0.00000000E+00
  0.00000000E+00  0.00000000E+00  0.00000000E+00
  0.00000000E+00  0.00000000E+00  0.00000000E+00
  0.00000000E+00  0.00000000E+00  0.00000000E+00
  0.00000000E+00  0.00000000E+00  0.00000000E+00
  0.00000000E+00  0.00000000E+00  0.00000000E+00
  0.00000000E+00  0.00000000E+00  0.00000000E+00
  0.00000000E+00  0.00000000E+00  0.00000000E+00
  0.00000000E+00  0.00000000E+00  0.00000000E+00
  0.00000000E+00  0.00000000E+00  0.00000000E+00
  0.00000000E+00  0.00000000E+00  0.00000000E+00
  0.00000000E+00  0.00000000E+00  0.00000000E+00
  0.00000000E+00  0.00000000E+00  0.00000000E+00
  0.00000000E+00  0.00000000E+00  0.00000000E+00
  0.00000000E+00  0.00000000E+00  0.00000000E+00
  0.00000000E+00  0.00000000E+00  0.00000000E+00
