generated by phonopy
   1.0
    11.4081287385000003    0.0000000000000000    0.0000000000000000
     0.0000000000000000   11.4081287385000003    0.0000000000000000
     0.0000000000000000    0.0000000000000000    9.7477521895999999
Ti O
  36   72
Direct
  0.0000000000000000  0.0000000000000000  0.0000000000000000
  0.3333333333333333  0.0000000000000000  0.0000000000000000
  0.6666666666666666  0.0000000000000000  0.0000000000000000
  0.0000000000000000  0.3333333333333333  0.0000000000000000
  0.3333333333333333  0.3333333333333333  0.0000000000000000
  0.6666666666666666  0.3333333333333333  0.0000000000000000
  0.0000000000000000  0.6666666666666666  0.0000000000000000
  0.3333333333333333  0.6666666666666666  0.0000000000000000
  0.6666666666666666  0.6666666666666666  0.0000000000000000
  0.1666666666666667  0.1666666666666667  0.5000000000000000
  0.5000000000000000  0.1666666666666667  0.5000000000000000
  0.8333333333333333  0.1666666666666667  0.5000000000000000
  0.1666666666666667  0.5000000000000000  0.5000000000000000
  0.5000000000000000  0.5000000000000000  0.5000000000000000
  0.8333333333333333  0.5000000000000000  0.5000000000000000
  0.1666666666666667  0.8333333333333333  0.5000000000000000
  0.5000000000000000  0.8333333333333333  0.5000000000000000
  0.8333333333333333  0.8333333333333333  0.5000000000000000
  0.0000000000000000  0.1666666666666667  0.2500000000000000
  0.3333333333333333  0.1666666666666667  0.2500000000000000
  0.6666666666666666  0.1666666666666667  0.2500000000000000
  0.0000000000000000  0.5000000000000000  0.2500000000000000
  0.3333333333333333  0.5000000000000000  0.2500000000000000
  0.6666666666666666  0.5000000000000000  0.2500000000000000
  0.0000000000000000  0.8333333333333333  0.2500000000000000
  0.3333333333333333  0.8333333333333333  0.2500000000000000
  0.6666666666666666  0.8333333333333333  0.2500000000000000
  0.1666666666666667  0.0000000000000000  0.7499999760000000
  0.5000000000000000  0.0000000000000000  0.7499999760000000
  0.8333333333333333  0.0000000000000000  0.7499999760000000
  0.1666666666666667  0.3333333333333333  0.7499999760000000
  0.5000000000000000  0.3333333333333333  0.7499999760000000
  0.8333333333333333  0.3333333333333333  0.7499999760000000
  0.1666666666666667  0.6666666666666666  0.7499999760000000
  0.5000000000000000  0.6666666666666666  0.7499999760000000
  0.8333333333333333  0.6666666666666666  0.7499999760000000
  0.0000000000000000  0.0000000000000000  0.2061630080000000
  0.3333333333333333  0.0000000000000000  0.2061630080000000
  0.6666666666666666  0.0000000000000000  0.2061630080000000
  0.0000000000000000  0.3333333333333333  0.2061630080000000
  0.3333333333333333  0.3333333333333333  0.2061630080000000
  0.6666666666666666  0.3333333333333333  0.2061630080000000
  0.0000000000000000  0.6666666666666666  0.2061630080000000
  0.3333333333333333  0.6666666666666666  0.2061630080000000
  0.6666666666666666  0.6666666666666666  0.2061630080000000
  0.1666666666666667  0.1666666666666667  0.7061630080000000
  0.5000000000000000  0.1666666666666667  0.7061630080000000
  0.8333333333333333  0.1666666666666667  0.7061630080000000
  0.1666666666666667  0.5000000000000000  0.7061630080000000
  0.5000000000000000  0.5000000000000000  0.7061630080000000
  0.8333333333333333  0.5000000000000000  0.7061630080000000
  0.1666666666666667  0.8333333333333333  0.7061630080000000
  0.5000000000000000  0.8333333333333333  0.7061630080000000
  0.8333333333333333  0.8333333333333333  0.7061630080000000
  0.0000000000000000  0.1666666666666667  0.4561629830000000
  0.3333333333333333  0.1666666666666667  0.4561629830000000
  0.6666666666666666  0.1666666666666667  0.4561629830000000
  0.0000000000000000  0.5000000000000000  0.4561629830000000
  0.3333333333333333  0.5000000000000000  0.4561629830000000
  0.6666666666666666  0.5000000000000000  0.4561629830000000
  0.0000000000000000  0.8333333333333333  0.4561629830000000
  0.3333333333333333  0.8333333333333333  0.4561629830000000
  0.6666666666666666  0.8333333333333333  0.4561629830000000
  0.1666666666666667  0.0000000000000000  0.9561630320000000
  0.5000000000000000  0.0000000000000000  0.9561630320000000
  0.8333333333333333  0.0000000000000000  0.9561630320000000
  0.1666666666666667  0.3333333333333333  0.9561630320000000
  0.5000000000000000  0.3333333333333333  0.9561630320000000
  0.8333333333333333  0.3333333333333333  0.9561630320000000
  0.1666666666666667  0.6666666666666666  0.9561630320000000
  0.5000000000000000  0.6666666666666666  0.9561630320000000
  0.8333333333333333  0.6666666666666666  0.9561630320000000
  0.1666666666666667  0.0000000000000000  0.5438370170000000
  0.5000000000000000  0.0000000000000000  0.5438370170000000
  0.8333333333333333  0.0000000000000000  0.5438370170000000
  0.1666666666666667  0.3333333333333333  0.5438370170000000
  0.5000000000000000  0.3333333333333333  0.5438370170000000
  0.8333333333333333  0.3333333333333333  0.5438370170000000
  0.1666666666666667  0.6666666666666666  0.5438370170000000
  0.5000000000000000  0.6666666666666666  0.5438370170000000
  0.8333333333333333  0.6666666666666666  0.5438370170000000
  0.0000000000000000  0.1666666666666667  0.0438369950000000
  0.3333333333333333  0.1666666666666667  0.0438369950000000
  0.6666666666666666  0.1666666666666667  0.0438369950000000
  0.0000000000000000  0.5000000000000000  0.0438369950000000
  0.3333333333333333  0.5000000000000000  0.0438369950000000
  0.6666666666666666  0.5000000000000000  0.0438369950000000
  0.0000000000000000  0.8333333333333333  0.0438369950000000
  0.3333333333333333  0.8333333333333333  0.0438369950000000
  0.6666666666666666  0.8333333333333333  0.0438369950000000
  0.1666666666666667  0.1666666666666667  0.2938370170000000
  0.5000000000000000  0.1666666666666667  0.2938370170000000
  0.8333333333333333  0.1666666666666667  0.2938370170000000
  0.1666666666666667  0.5000000000000000  0.2938370170000000
  0.5000000000000000  0.5000000000000000  0.2938370170000000
  0.8333333333333333  0.5000000000000000  0.2938370170000000
  0.1666666666666667  0.8333333333333333  0.2938370170000000
  0.5000000000000000  0.8333333333333333  0.2938370170000000
  0.8333333333333333  0.8333333333333333  0.2938370170000000
  0.0000000000000000  0.0000000000000000  0.7938369920000000
  0.3333333333333333  0.0000000000000000  0.7938369920000000
  0.6666666666666666  0.0000000000000000  0.7938369920000000
  0.0000000000000000  0.3333333333333333  0.7938369920000000
  0.3333333333333333  0.3333333333333333  0.7938369920000000
  0.6666666666666666  0.3333333333333333  0.7938369920000000
  0.0000000000000000  0.6666666666666666  0.7938369920000000
  0.3333333333333333  0.6666666666666666  0.7938369920000000
  0.6666666666666666  0.6666666666666666  0.7938369920000000
