generated by phonopy                    
   1.00000000000000     
    11.4081287385000003    0.0000000000000000    0.0000000000000000
     0.0000000000000000   11.4081287385000003    0.0000000000000000
     0.0000000000000000    0.0000000000000000    9.7477521895999999
   Ti   O 
    36    72
Direct
  0.0000000031163002  0.0000004928634518 -0.0005218380045739
  0.3335544330133454 -0.0001198598489239 -0.0000576209362944
  0.6664455655825766 -0.0001198727474664 -0.0000576017749842
  0.0000000010520569  0.3333349715572780  0.0000785744803733
  0.3331617923323220  0.3333343173122124  0.0005143072441731
  0.6668382077287491  0.3333343171925641  0.0005142897195753
  0.0000000021723136  0.6666661468134403 -0.0005227086766440
  0.3335534314919628  0.6667843672905545 -0.0000576507789541
  0.6664465651710587  0.6667843804168817 -0.0000576309313941
  0.1667437223152990  0.1666847493580860  0.4998665404733124
  0.4999999999717249  0.1672689681671649  0.5017886631165374
  0.8332562766733009  0.1666847519268403  0.4998665392773994
  0.1667428134251881  0.4999850309787814  0.4998663689083601
  0.5000000002586759  0.4993973937759905  0.5017884607514989
  0.8332571866722804  0.4999850295319420  0.4998663676228428
  0.1670000396159764  0.8333340630701354  0.4974691844248382
  0.4999999858418145  0.8333316505449659  0.5029337553810053
  0.8329999708744117  0.8333340628788514  0.4974692565246855
 -0.0000000006523058  0.1665433176397257  0.2498906364761614
  0.3335601550505062  0.1664746838640493  0.2501705236234381
  0.6664398469084460  0.1664746852388896  0.2501705145069718
 -0.0000000006466480  0.5001243835459811  0.2498903980733755
  0.3335607940126194  0.5001938899367582  0.2501711648887340
  0.6664392057407295  0.5001938894310139  0.2501711570224068
 -0.0000000094849655  0.8333350360328923  0.2492794752280584
  0.3352734299931543  0.8333340535525188  0.2497112439251985
  0.6647265771148444  0.8333340550463151  0.2497113309568322
  0.1668995004218497 -0.0003187661640895  0.7496075563386954
  0.5000000024751735 -0.0001164007833810  0.7495779411181838
  0.8331004990833859 -0.0003187539961914  0.7496075816027603
  0.1667212542740095  0.3333341605707755  0.7500849206066763
  0.4999999998905186  0.3333319757613544  0.7517931782644895
  0.8332787482647627  0.3333341615432913  0.7500849143960812
  0.1669002389463172  0.6669844447352329  0.7496086985552026
  0.5000000009126033  0.6667740313518011  0.7495814733544829
  0.8330997587065196  0.6669844329519341  0.7496087238643053
 -0.0000000057964679  0.0003909683711515  0.2058939876933807
  0.3315507826814262  0.0005718244216169  0.2061433187360536
  0.6684492194204326  0.0005718230066256  0.2061433309331582
  0.0000000015972886  0.3333331137255859  0.2065524320332829
  0.3329931512448523  0.3333330842422116  0.2070592281120929
  0.6670068494050696  0.3333330850952971  0.2070591967856085
 -0.0000000056149937  0.6662774508816373  0.2058922829657696
  0.3315493140749245  0.6660951619688098  0.2061425098190748
  0.6684506869273813  0.6660951639314456  0.2061425223790978
  0.1663399504755798  0.1667589475667124  0.7064831256589093
  0.4999999967683893  0.1683241624887181  0.7107308683288471
  0.8336600519164304  0.1667589595007335  0.7064831200596706
  0.1663394129144771  0.4999091309011027  0.7064869603792410
  0.4999999959201287  0.4983403933194651  0.7107308390372188
  0.8336605895366156  0.4999091204533527  0.7064869538992659
  0.1673193940071766  0.8333325615113176  0.7059439049986944
  0.4999999895944506  0.8333289046486990  0.7169794336832530
  0.8326806198034168  0.8333325612978052  0.7059439911429012
 -0.0000000016232763  0.1669198425805834  0.4563492308213700
  0.3328597220945437  0.1681829283577067  0.4564911327127428
  0.6671402794208489  0.1681829241951760  0.4564911150287611
 -0.0000000006306990  0.4997615738062425  0.4563484251849112
  0.3328595235815849  0.4984993783093448  0.4564905591147660
  0.6671404780719612  0.4984993823236074  0.4564905400376816
 -0.0000000006493080  0.8333253523666674  0.4554825808951790
  0.3304120840331062  0.8333299855850740  0.4534234034051101
  0.6695879139507934  0.8333299849400130  0.4534234770498230
  0.1663031223022546  0.0005051422432346  0.9561898948960504
  0.5000000006291911  0.0014204332900111  0.9589007311705494
  0.8336968783461823  0.0005051612030921  0.9561898930781321
  0.1662975590407819  0.3333282882970692  0.9569108206800354
  0.5000000009668724  0.3333267327907834  0.9587926638086438
  0.8337024413854083  0.3333282865899483  0.9569107922743505
  0.1663022153356753  0.6661620144598822  0.9561870455887475
  0.4999999997319456  0.6652312038079167  0.9589037831905283
  0.8336977842289923  0.6661619947853343  0.9561870427883803
  0.1661767363247287  0.0002602591862483  0.5429727370108641
  0.5000000007422328  0.0065721447200811  0.5476389420205031
  0.8338232685238166  0.0002602611315311  0.5429727687791783
  0.1659021586986495  0.3333346152979986  0.5436377083078557
  0.5000000044647299  0.3333328375672815  0.5461191788712211
  0.8340978392223768  0.3333346155714801  0.5436376658830943
  0.1661765858117105  0.6664081058388582  0.5429757050524441
  0.4999999989769258  0.6600932527008581  0.5476414450238172
  0.8338234170987158  0.6664081031599188  0.5429757380260228
  0.0000000024940616  0.1668318310097829  0.0431230947644322
  0.3325582344354930  0.1669865969739699  0.0435189791745269
  0.6674417653036344  0.1669865921523991  0.0435189571480877
  0.0000000014035430  0.4998374310861730  0.0431214987896878
  0.3325556772848722  0.4996812832096793  0.0435186005837202
  0.6674443226528801  0.4996812878790469  0.0435185782732092
 -0.0000000125038732  0.8333322111165404  0.0421475671795389
  0.3320247061726159  0.8333312970255495  0.0413263290555355
  0.6679753058863029  0.8333312979738650  0.0413263557262649
  0.1664425058196645  0.1669642876581260  0.2932915777206624
  0.4999999992082457  0.1664340076510359  0.2934483607085603
  0.8335574946739935  0.1669642894122158  0.2932915644475183
  0.1664426622223378  0.4997119121539386  0.2932913004881764
  0.4999999987852323  0.5002394029667810  0.2934480216586323
  0.8335573379869399  0.4997119101174203  0.2932912883462584
  0.1657021917580902  0.8333355054107591  0.2910463534335782
  0.5000000021915744  0.8333288742481670  0.2804104369832470
  0.8342978013176114  0.8333355039063217  0.2910464133498905
  0.0000000033111499 -0.0001972786128915  0.7927095994996327
  0.3328366055182613  0.0013031011131219  0.7937609302987519
  0.6671633923828021  0.0013030954154573  0.7937609229122579
  0.0000000039135875  0.3333260863210263  0.7934723331842632
  0.3326404061558867  0.3333285370673040  0.7944369178063531
  0.6673595909583686  0.3333285381445903  0.7944368869539965
  0.0000000013988413  0.6668731429271944  0.7927088417575650
  0.3328375477713390  0.6653528939340335  0.7937634164894850
  0.6671624482183423  0.6653528979585402  0.7937634082960314
 
  0.00000000E+00  0.00000000E+00  0.00000000E+00
  0.00000000E+00  0.00000000E+00  0.00000000E+00
  0.00000000E+00  0.00000000E+00  0.00000000E+00
  0.00000000E+00  0.00000000E+00  0.00000000E+00
  0.00000000E+00  0.00000000E+00  0.00000000E+00
  0.00000000E+00  0.00000000E+00  0.00000000E+00
  0.00000000E+00  0.00000000E+00  0.00000000E+00
  0.00000000E+00  0.00000000E+00  0.00000000E+00
  0.00000000E+00  0.00000000E+00  0.00000000E+00
  0.00000000E+00  0.00000000E+00  0.00000000E+00
  0.00000000E+00  0.00000000E+00  0.00000000E+00
  0.00000000E+00  0.00000000E+00  0.00000000E+00
  0.00000000E+00  0.00000000E+00  0.00000000E+00
  0.00000000E+00  0.00000000E+00  0.00000000E+00
  0.00000000E+00  0.00000000E+00  0.00000000E+00
  0.00000000E+00  0.00000000E+00  0.00000000E+00
  0.00000000E+00  0.00000000E+00  0.00000000E+00
  0.00000000E+00  0.00000000E+00  0.00000000E+00
  0.00000000E+00  0.00000000E+00  0.00000000E+00
  0.00000000E+00  0.00000000E+00  0.00000000E+00
  0.00000000E+00  0.00000000E+00  0.00000000E+00
  0.00000000E+00  0.00000000E+00  0.00000000E+00
  0.00000000E+00  0.00000000E+00  0.00000000E+00
  0.00000000E+00  0.00000000E+00  0.00000000E+00
  0.00000000E+00  0.00000000E+00  0.00000000E+00
  0.00000000E+00  0.00000000E+00  0.00000000E+00
  0.00000000E+00  0.00000000E+00  0.00000000E+00
  0.00000000E+00  0.00000000E+00  0.00000000E+00
  0.00000000E+00  0.00000000E+00  0.00000000E+00
  0.00000000E+00  0.00000000E+00  0.00000000E+00
  0.00000000E+00  0.00000000E+00  0.00000000E+00
  0.00000000E+00  0.00000000E+00  0.00000000E+00
  0.00000000E+00  0.00000000E+00  0.00000000E+00
  0.00000000E+00  0.00000000E+00  0.00000000E+00
  0.00000000E+00  0.00000000E+00  0.00000000E+00
  0.00000000E+00  0.00000000E+00  0.00000000E+00
  0.00000000E+00  0.00000000E+00  0.00000000E+00
  0.00000000E+00  0.00000000E+00  0.00000000E+00
  0.00000000E+00  0.00000000E+00  0.00000000E+00
  0.00000000E+00  0.00000000E+00  0.00000000E+00
  0.00000000E+00  0.00000000E+00  0.00000000E+00
  0.00000000E+00  0.00000000E+00  0.00000000E+00
  0.00000000E+00  0.00000000E+00  0.00000000E+00
  0.00000000E+00  0.00000000E+00  0.00000000E+00
  0.00000000E+00  0.00000000E+00  0.00000000E+00
  0.00000000E+00  0.00000000E+00  0.00000000E+00
  0.00000000E+00  0.00000000E+00  0.00000000E+00
  0.00000000E+00  0.00000000E+00  0.00000000E+00
  0.00000000E+00  0.00000000E+00  0.00000000E+00
  0.00000000E+00  0.00000000E+00  0.00000000E+00
  0.00000000E+00  0.00000000E+00  0.00000000E+00
  0.00000000E+00  0.00000000E+00  0.00000000E+00
  0.00000000E+00  0.00000000E+00  0.00000000E+00
  0.00000000E+00  0.00000000E+00  0.00000000E+00
  0.00000000E+00  0.00000000E+00  0.00000000E+00
  0.00000000E+00  0.00000000E+00  0.00000000E+00
  0.00000000E+00  0.00000000E+00  0.00000000E+00
  0.00000000E+00  0.00000000E+00  0.00000000E+00
  0.00000000E+00  0.00000000E+00  0.00000000E+00
  0.00000000E+00  0.00000000E+00  0.00000000E+00
  0.00000000E+00  0.00000000E+00  0.00000000E+00
  0.00000000E+00  0.00000000E+00  0.00000000E+00
  0.00000000E+00  0.00000000E+00  0.00000000E+00
  0.00000000E+00  0.00000000E+00  0.00000000E+00
  0.00000000E+00  0.00000000E+00  0.00000000E+00
  0.00000000E+00  0.00000000E+00  0.00000000E+00
  0.00000000E+00  0.00000000E+00  0.00000000E+00
  0.00000000E+00  0.00000000E+00  0.00000000E+00
  0.00000000E+00  0.00000000E+00  0.00000000E+00
  0.00000000E+00  0.00000000E+00  0.00000000E+00
  0.00000000E+00  0.00000000E+00  0.00000000E+00
  0.00000000E+00  0.00000000E+00  0.00000000E+00
  0.00000000E+00  0.00000000E+00  0.00000000E+00
  0.00000000E+00  0.00000000E+00  0.00000000E+00
  0.00000000E+00  0.00000000E+00  0.00000000E+00
  0.00000000E+00  0.00000000E+00  0.00000000E+00
  0.00000000E+00  0.00000000E+00  0.00000000E+00
  0.00000000E+00  0.00000000E+00  0.00000000E+00
  0.00000000E+00  0.00000000E+00  0.00000000E+00
  0.00000000E+00  0.00000000E+00  0.00000000E+00
  0.00000000E+00  0.00000000E+00  0.00000000E+00
  0.00000000E+00  0.00000000E+00  0.00000000E+00
  0.00000000E+00  0.00000000E+00  0.00000000E+00
  0.00000000E+00  0.00000000E+00  0.00000000E+00
  0.00000000E+00  0.00000000E+00  0.00000000E+00
  0.00000000E+00  0.00000000E+00  0.00000000E+00
  0.00000000E+00  0.00000000E+00  0.00000000E+00
  0.00000000E+00  0.00000000E+00  0.00000000E+00
  0.00000000E+00  0.00000000E+00  0.00000000E+00
  0.00000000E+00  0.00000000E+00  0.00000000E+00
  0.00000000E+00  0.00000000E+00  0.00000000E+00
  0.00000000E+00  0.00000000E+00  0.00000000E+00
  0.00000000E+00  0.00000000E+00  0.00000000E+00
  0.00000000E+00  0.00000000E+00  0.00000000E+00
  0.00000000E+00  0.00000000E+00  0.00000000E+00
  0.00000000E+00  0.00000000E+00  0.00000000E+00
  0.00000000E+00  0.00000000E+00  0.00000000E+00
  0.00000000E+00  0.00000000E+00  0.00000000E+00
  0.00000000E+00  0.00000000E+00  0.00000000E+00
  0.00000000E+00  0.00000000E+00  0.00000000E+00
  0.00000000E+00  0.00000000E+00  0.00000000E+00
  0.00000000E+00  0.00000000E+00  0.00000000E+00
  0.00000000E+00  0.00000000E+00  0.00000000E+00
  0.00000000E+00  0.00000000E+00  0.00000000E+00
  0.00000000E+00  0.00000000E+00  0.00000000E+00
  0.00000000E+00  0.00000000E+00  0.00000000E+00
  0.00000000E+00  0.00000000E+00  0.00000000E+00
  0.00000000E+00  0.00000000E+00  0.00000000E+00
