generated by phonopy                    
   1.00000000000000     
    11.4081287385000003    0.0000000000000000    0.0000000000000000
     0.0000000000000000   11.4081287385000003    0.0000000000000000
     0.0000000000000000    0.0000000000000000    9.7477521895999999
   Ti   O 
    36    72
Direct
 -0.0000000065911592 -0.0000040928112802  0.0000384464392447
  0.3332692463311084  0.0000647935595011  0.0000001518928714
  0.6667307693908134  0.0000647882117863  0.0000001500576415
  0.0000000046545730  0.3333345828457177  0.0000001325883937
  0.3333376533694928  0.3333337550045857 -0.0000381482590894
  0.6666623446504955  0.3333337369289591 -0.0000381499383442
  0.0000000045018659  0.6666702684152411  0.0000385730476491
  0.3332683836561944  0.6666020062867741 -0.0000001688776763
  0.6667316268893415  0.6666019965475055 -0.0000001699338203
  0.1666981131167755  0.1666351294467101  0.5000002635428518
  0.4999999996349304  0.1667167359046334  0.5006049042877841
  0.8333018953242007  0.1666351322750260  0.5000002660912370
  0.1666972475232411  0.5000319534311203  0.5000001244082675
  0.5000000114812305  0.4999466530137051  0.5006049368299271
  0.8333027493321921  0.5000319466553266  0.5000001328037650
  0.1666141617610788  0.8333332441290542  0.4993954043463951
  0.4999999826623505  0.8333330510112232  0.4999996933403121
  0.8333858181363407  0.8333332320388280  0.4993953952906232
  0.0000000029038976  0.1666764639396412  0.2499772496001101
  0.3334431019664580  0.1666733871287378  0.2499736640664266
  0.6665568984838296  0.1666733951363765  0.2499736555967808
  0.0000000132761849  0.4999901087869856  0.2499771774037229
  0.3334439935046751  0.4999936412580662  0.2499737596161212
  0.6665560130582496  0.4999936532968419  0.2499737615182252
 -0.0000000147153059  0.8333345493720183  0.2498854882432280
  0.3334407810111271  0.8333331923665950  0.2493465213238210
  0.6665591851196161  0.8333331881700191  0.2493464986359975
  0.1666589905839672 -0.0001097586931465  0.7500264486073638
  0.4999999941962520 -0.0001084884438238  0.7506536360259550
  0.8333410228051600 -0.0001097638144999  0.7500264342597527
  0.1666561361172390  0.3333337325471324  0.7500229073575088
  0.5000000048418002  0.3333342745244267  0.7501138529148894
  0.8333438695868928  0.3333337271200243  0.7500228889588114
  0.1666597331539718  0.6667765725841749  0.7500268427089486
  0.4999999966497290  0.6667732614981378  0.7506539020713116
  0.8333402738805752  0.6667765626465965  0.7500268187871576
 -0.0000000035325127  0.0001144753347382  0.2066576831126011
  0.3329140434659323  0.0001785049470622  0.2065059148249900
  0.6670859394899223  0.0001785045680372  0.2065058967440123
  0.0000000000227464  0.3333324444154567  0.2067097737417725
  0.3332998211365283  0.3333329406414249  0.2067348046326231
  0.6667001903630022  0.3333329334454898  0.2067347929521584
 -0.0000000067842935  0.6665536514738506  0.2066565853953891
  0.3329159573779514  0.6664885989838448  0.2065031037349013
  0.6670840308203262  0.6664886042609397  0.2065030912275816
  0.1665625369423777  0.1666951356196768  0.7067127732016564
  0.5000000116195290  0.1669627995726474  0.7076600168908497
  0.8334374649200087  0.1666951349422169  0.7067127618099526
  0.1665642057291496  0.4999725228889407  0.7067155230946137
  0.5000000009814355  0.4997043504734868  0.7076628873197021
  0.8334358124633250  0.4999725190649139  0.7067155109612436
  0.1667375488198816  0.8333327905391513  0.7067531710917051
  0.4999999933133569  0.8333320408615953  0.7097059423055452
  0.8332624501089296  0.8333327854642630  0.7067531620218269
  0.0000000004137746  0.1667549668441635  0.4567086262646317
  0.3332581861313584  0.1667950428579628  0.4567193296441317
  0.6667418164920331  0.1667950475538572  0.4567193209096498
  0.0000000049714538  0.4999200886760852  0.4567080160228428
  0.3332574315341021  0.4998786294522624  0.4567201746442417
  0.6667425702730493  0.4998786264457800  0.4567201781348169
 -0.0000000099729394  0.8333260611411188  0.4565209648616154
  0.3324685800253619  0.8333269353194627  0.4552758552673689
  0.6675314016780677  0.8333269127520171  0.4552758255297546
  0.1665503182744711  0.0001123995833226  0.9567993999443142
  0.5000000031317638  0.0003362523596722  0.9575337468182760
  0.8334496840884402  0.0001123847032855  0.9567993888391838
  0.1666055520390614  0.3333280689827817  0.9567801509084926
  0.4999999984596530  0.3333260027267370  0.9569475877734692
  0.8333944555466547  0.3333280750143284  0.9567801304644099
  0.1665495682151085  0.6665597495739126  0.9567987596324562
  0.4999999958018089  0.6663359856741660  0.9575339379635269
  0.8334504437607183  0.6665597493129217  0.9567987448686158
  0.1665513621400628  0.0000741184274082  0.5432783540334911
  0.4999999957749084  0.0008613974995805  0.5447206222142569
  0.8334486230847850  0.0000741140508164  0.5432783423449038
  0.1665913443991570  0.3333330278738139  0.5432942773519057
  0.5000000034173562  0.3333314595591664  0.5434806177459477
  0.8334086626954665  0.3333330254833342  0.5432942579486664
  0.1665489527418427  0.6665930194914385  0.5432815590104837
  0.4999999920848274  0.6658010254304578  0.5447234017192597
  0.8334510392678786  0.6665930141673797  0.5432815446128586
 -0.0000000060542690  0.1667298194549454  0.0432190890812563
  0.3332148294639584  0.1667848741473288  0.0432015705011047
  0.6667851919510680  0.1667848644370218  0.0432015592332341
  0.0000000042071046  0.4999387281452588  0.0432178816576805
  0.3332133430774558  0.4998831394910442  0.0431992073405100
  0.6667866686739757  0.4998831363623809  0.0431992024007706
 -0.0000000036553989  0.8333323307421994  0.0430536550926962
  0.3329891348053872  0.8333327312261503  0.0424668521111017
  0.6670108590644771  0.8333327320875827  0.0424668338164009
  0.1666394947362881  0.1667823767735465  0.2932874093321220
  0.4999999980495515  0.1666086625691342  0.2932443115310657
  0.8333605098054385  0.1667823643494961  0.2932873998518608
  0.1666400910006341  0.4998913767098063  0.2932862788149517
  0.4999999993406564  0.5000655214326846  0.2932447254641355
  0.8333599180813748  0.4998913771162418  0.2932862686932285
  0.1663712276256565  0.8333282597194704  0.2923377906372833
  0.4999999879858386  0.8333280937074503  0.2902924345494277
  0.8336287553054510  0.8333282547437441  0.2923377640843764
  0.0000000012138159  0.0000278390703534  0.7932632119214449
  0.3331531607064849  0.0004097969254460  0.7934956498306377
  0.6668468432065592  0.0004097852891114  0.7934956383252074
  0.0000000059961330  0.3333263374370895  0.7932890320752073
  0.3332183280765998  0.3333276688939431  0.7933444875500015
  0.6667816758022874  0.3333276848408682  0.7933444636249847
  0.0000000051772862  0.6666464703549526  0.7932629437950477
  0.3331537231841309  0.6662596287947282  0.7934973281370266
  0.6668462771948471  0.6662596144043307  0.7934973063563286
 
  0.00000000E+00  0.00000000E+00  0.00000000E+00
  0.00000000E+00  0.00000000E+00  0.00000000E+00
  0.00000000E+00  0.00000000E+00  0.00000000E+00
  0.00000000E+00  0.00000000E+00  0.00000000E+00
  0.00000000E+00  0.00000000E+00  0.00000000E+00
  0.00000000E+00  0.00000000E+00  0.00000000E+00
  0.00000000E+00  0.00000000E+00  0.00000000E+00
  0.00000000E+00  0.00000000E+00  0.00000000E+00
  0.00000000E+00  0.00000000E+00  0.00000000E+00
  0.00000000E+00  0.00000000E+00  0.00000000E+00
  0.00000000E+00  0.00000000E+00  0.00000000E+00
  0.00000000E+00  0.00000000E+00  0.00000000E+00
  0.00000000E+00  0.00000000E+00  0.00000000E+00
  0.00000000E+00  0.00000000E+00  0.00000000E+00
  0.00000000E+00  0.00000000E+00  0.00000000E+00
  0.00000000E+00  0.00000000E+00  0.00000000E+00
  0.00000000E+00  0.00000000E+00  0.00000000E+00
  0.00000000E+00  0.00000000E+00  0.00000000E+00
  0.00000000E+00  0.00000000E+00  0.00000000E+00
  0.00000000E+00  0.00000000E+00  0.00000000E+00
  0.00000000E+00  0.00000000E+00  0.00000000E+00
  0.00000000E+00  0.00000000E+00  0.00000000E+00
  0.00000000E+00  0.00000000E+00  0.00000000E+00
  0.00000000E+00  0.00000000E+00  0.00000000E+00
  0.00000000E+00  0.00000000E+00  0.00000000E+00
  0.00000000E+00  0.00000000E+00  0.00000000E+00
  0.00000000E+00  0.00000000E+00  0.00000000E+00
  0.00000000E+00  0.00000000E+00  0.00000000E+00
  0.00000000E+00  0.00000000E+00  0.00000000E+00
  0.00000000E+00  0.00000000E+00  0.00000000E+00
  0.00000000E+00  0.00000000E+00  0.00000000E+00
  0.00000000E+00  0.00000000E+00  0.00000000E+00
  0.00000000E+00  0.00000000E+00  0.00000000E+00
  0.00000000E+00  0.00000000E+00  0.00000000E+00
  0.00000000E+00  0.00000000E+00  0.00000000E+00
  0.00000000E+00  0.00000000E+00  0.00000000E+00
  0.00000000E+00  0.00000000E+00  0.00000000E+00
  0.00000000E+00  0.00000000E+00  0.00000000E+00
  0.00000000E+00  0.00000000E+00  0.00000000E+00
  0.00000000E+00  0.00000000E+00  0.00000000E+00
  0.00000000E+00  0.00000000E+00  0.00000000E+00
  0.00000000E+00  0.00000000E+00  0.00000000E+00
  0.00000000E+00  0.00000000E+00  0.00000000E+00
  0.00000000E+00  0.00000000E+00  0.00000000E+00
  0.00000000E+00  0.00000000E+00  0.00000000E+00
  0.00000000E+00  0.00000000E+00  0.00000000E+00
  0.00000000E+00  0.00000000E+00  0.00000000E+00
  0.00000000E+00  0.00000000E+00  0.00000000E+00
  0.00000000E+00  0.00000000E+00  0.00000000E+00
  0.00000000E+00  0.00000000E+00  0.00000000E+00
  0.00000000E+00  0.00000000E+00  0.00000000E+00
  0.00000000E+00  0.00000000E+00  0.00000000E+00
  0.00000000E+00  0.00000000E+00  0.00000000E+00
  0.00000000E+00  0.00000000E+00  0.00000000E+00
  0.00000000E+00  0.00000000E+00  0.00000000E+00
  0.00000000E+00  0.00000000E+00  0.00000000E+00
  0.00000000E+00  0.00000000E+00  0.00000000E+00
  0.00000000E+00  0.00000000E+00  0.00000000E+00
  0.00000000E+00  0.00000000E+00  0.00000000E+00
  0.00000000E+00  0.00000000E+00  0.00000000E+00
  0.00000000E+00  0.00000000E+00  0.00000000E+00
  0.00000000E+00  0.00000000E+00  0.00000000E+00
  0.00000000E+00  0.00000000E+00  0.00000000E+00
  0.00000000E+00  0.00000000E+00  0.00000000E+00
  0.00000000E+00  0.00000000E+00  0.00000000E+00
  0.00000000E+00  0.00000000E+00  0.00000000E+00
  0.00000000E+00  0.00000000E+00  0.00000000E+00
  0.00000000E+00  0.00000000E+00  0.00000000E+00
  0.00000000E+00  0.00000000E+00  0.00000000E+00
  0.00000000E+00  0.00000000E+00  0.00000000E+00
  0.00000000E+00  0.00000000E+00  0.00000000E+00
  0.00000000E+00  0.00000000E+00  0.00000000E+00
  0.00000000E+00  0.00000000E+00  0.00000000E+00
  0.00000000E+00  0.00000000E+00  0.00000000E+00
  0.00000000E+00  0.00000000E+00  0.00000000E+00
  0.00000000E+00  0.00000000E+00  0.00000000E+00
  0.00000000E+00  0.00000000E+00  0.00000000E+00
  0.00000000E+00  0.00000000E+00  0.00000000E+00
  0.00000000E+00  0.00000000E+00  0.00000000E+00
  0.00000000E+00  0.00000000E+00  0.00000000E+00
  0.00000000E+00  0.00000000E+00  0.00000000E+00
  0.00000000E+00  0.00000000E+00  0.00000000E+00
  0.00000000E+00  0.00000000E+00  0.00000000E+00
  0.00000000E+00  0.00000000E+00  0.00000000E+00
  0.00000000E+00  0.00000000E+00  0.00000000E+00
  0.00000000E+00  0.00000000E+00  0.00000000E+00
  0.00000000E+00  0.00000000E+00  0.00000000E+00
  0.00000000E+00  0.00000000E+00  0.00000000E+00
  0.00000000E+00  0.00000000E+00  0.00000000E+00
  0.00000000E+00  0.00000000E+00  0.00000000E+00
  0.00000000E+00  0.00000000E+00  0.00000000E+00
  0.00000000E+00  0.00000000E+00  0.00000000E+00
  0.00000000E+00  0.00000000E+00  0.00000000E+00
  0.00000000E+00  0.00000000E+00  0.00000000E+00
  0.00000000E+00  0.00000000E+00  0.00000000E+00
  0.00000000E+00  0.00000000E+00  0.00000000E+00
  0.00000000E+00  0.00000000E+00  0.00000000E+00
  0.00000000E+00  0.00000000E+00  0.00000000E+00
  0.00000000E+00  0.00000000E+00  0.00000000E+00
  0.00000000E+00  0.00000000E+00  0.00000000E+00
  0.00000000E+00  0.00000000E+00  0.00000000E+00
  0.00000000E+00  0.00000000E+00  0.00000000E+00
  0.00000000E+00  0.00000000E+00  0.00000000E+00
  0.00000000E+00  0.00000000E+00  0.00000000E+00
  0.00000000E+00  0.00000000E+00  0.00000000E+00
  0.00000000E+00  0.00000000E+00  0.00000000E+00
  0.00000000E+00  0.00000000E+00  0.00000000E+00
  0.00000000E+00  0.00000000E+00  0.00000000E+00
