generated by phonopy                    
   1.00000000000000     
    11.4081287385000003    0.0000000000000000    0.0000000000000000
     0.0000000000000000   11.4081287385000003    0.0000000000000000
     0.0000000000000000    0.0000000000000000    9.7477521895999999
   Ti   O 
    36    72
Direct
 -0.0000003001807488  0.0000001965706688 -0.0000000028181656
  0.3333364430189077 -0.0000001381584427  0.0000000565513846
  0.6666638067935681 -0.0000003696896383 -0.0000003273780880
 -0.0000003976891410  0.3333364553870224  0.0000004050791231
  0.3333348801821487  0.3333340666975694 -0.0000000240510171
  0.6666654518328221  0.3333350132511754  0.0000002569923880
 -0.0000001507302727  0.6666633073411068 -0.0000003086405975
  0.3333353345326966  0.6666659968586773  0.0000000120844227
  0.6666648060286156  0.6666653344354885 -0.0000001665710172
  0.1666649558216983  0.1666648443854212  0.5000002007283899
  0.5000003395361865  0.1666641665837487  0.4999997251951783
  0.8333347067478786  0.1666646816251562  0.4999999744343540
  0.1666637376685000  0.5000003474617800  0.4999999974029418
  0.4999996019623715  0.4999993481104987  0.4999997012463328
  0.8333366662546011  0.5000002784182416  0.4999999773818756
  0.1666649674851307  0.8333348753482274  0.4999995772575115
  0.5000001045568752  0.8333364379433529  0.4999997811293748
  0.8333349756827158  0.8333350629483873  0.5000000577739185
 -0.0000002846961755  0.1666642925717333  0.2499999631326275
  0.3333354789133900  0.1666649726237587  0.2499994277970577
  0.6666648355150742  0.1666650353266779  0.2500003397374442
 -0.0000001804219697  0.4999994499034515  0.2500000074327736
  0.3333368537977442  0.5000002050445329  0.2500007102630151
  0.6666632986963869  0.5000001600552142  0.2499997835989073
  0.0000002039895838  0.8333362716026969  0.2500008953205273
  0.3333342155653466  0.8333348874874920  0.2499995213992368
  0.6666655791359571  0.8333348046748077  0.2499997742650059
  0.1666643609378074  0.0000000496354205  0.7499997156864938
  0.5000000502596907  0.0000004119171725  0.7500003967971246
  0.8333355934983334 -0.0000001108769448  0.7499999453621214
  0.1666651172712057  0.3333347160432319  0.7500000046725558
  0.4999996953283072  0.3333360877012482  0.7499992788911591
  0.8333351766119832  0.3333347071817186  0.7500003342734174
  0.1666650843660099  0.6666652578272118  0.7499997459999932
  0.5000002269352305  0.6666635207101177  0.7500008277723564
  0.8333346318960244  0.6666654980617619  0.7500001517925972
  0.0000000136701232  0.0000000796921155  0.2067626608477558
  0.3333308630160862  0.0000001138018689  0.2067625247309050
  0.6666691331684298  0.0000001196325919  0.2067625913103427
  0.0000000052792706  0.3333302234432318  0.2067627950739630
  0.3333317548857218  0.3333310950773758  0.2067609870494956
  0.6666682583249980  0.3333311248598049  0.2067609860807295
  0.0000000130899629  0.6666696844341718  0.2067628001691616
  0.3333317292710956  0.6666687844403442  0.2067609060233614
  0.6666682647256953  0.6666687386498337  0.2067608739501833
  0.1666682931256129  0.1666688780768152  0.7067609924454346
  0.4999999915029011  0.1666698653873554  0.7067628501308904
  0.8333317222441156  0.1666688598366570  0.7067609447749365
  0.1666691430082289  0.5000000275965140  0.7067625142666193
  0.4999999930315773  0.4999999438013840  0.7067626393790623
  0.8333308667422443  0.5000000439349114  0.7067626113723509
  0.1666682750960260  0.8333310925578424  0.7067609620899999
  0.5000000137010464  0.8333301815500460  0.7067628564649431
  0.8333317214901271  0.8333310931008089  0.7067609520769367
  0.0000000013124545  0.1666691484653147  0.4567624043896709
  0.3333311192786286  0.1666683010358917  0.4567606916645747
  0.6666688744416187  0.1666683004048312  0.4567606695808394
  0.0000000588183141  0.5000000071438805  0.4567623321467347
  0.3333301270378793  0.4999999631670422  0.4567624596956456
  0.6666698208528886  0.4999999711066169  0.4567624401544763
  0.0000000178905005  0.8333308468176462  0.4567624577472744
  0.3333310831525521  0.8333317289769219  0.4567608618385306
  0.6666689254487606  0.8333317421211687  0.4567609311437866
  0.1666699452466754  0.0000000064878611  0.9567625764785699
  0.4999999311397724 -0.0000000038260576  0.9567623982839064
  0.8333301253641300 -0.0000000011824170  0.9567625309056665
  0.1666689193848507  0.3333317085319008  0.9567607338168023
  0.4999999422962070  0.3333308248579562  0.9567625089657897
  0.8333311422734895  0.3333317342365159  0.9567607172167080
  0.1666689307140259  0.6666682816530697  0.9567607254789634
  0.5000000081774072  0.6666691613494461  0.9567624895877472
  0.8333310765464074  0.6666682611116910  0.9567606797412622
  0.1666691274794485  0.0000000330685880  0.5432376409062368
  0.5000000045761629  0.0000000419676315  0.5432374868981489
  0.8333308723230367  0.0000000537182317  0.5432376485548260
  0.1666682715924256  0.3333312193422232  0.5432392562155919
  0.4999999882108489  0.3333302082826002  0.5432373736735707
  0.8333317479431051  0.3333311350893432  0.5432392262917370
  0.1666682393944004  0.6666687499588629  0.5432393078352017
  0.4999999955756158  0.6666697351706060  0.5432372633884980
  0.8333317609502625  0.6666687986713762  0.5432393183337887
 -0.0000000016686842  0.1666698440242568  0.0432374581786038
  0.3333317424877698  0.1666688583977495  0.0432393950516536
  0.6666682601467030  0.1666688573580841  0.0432393345147876
 -0.0000000100831801  0.5000000056025001  0.0432376626366698
  0.3333308688461267  0.5000000248358478  0.0432376473348655
  0.6666691457721738  0.5000000513192967  0.0432376622599951
 -0.0000000085764055  0.8333301462462932  0.0432373254509551
  0.3333317456988766  0.8333311258235770  0.0432392805624333
  0.6666682590447560  0.8333310842630571  0.0432392388263651
  0.1666689426201268  0.1666682903018356  0.2932390277479702
  0.4999999552704024  0.1666691716116966  0.2932373734156152
  0.8333311080412006  0.1666682978102481  0.2932390317188079
  0.1666698103678475  0.4999999839677570  0.2932373448276104
  0.4999999658823220  0.4999999679658271  0.2932374317647901
  0.8333302236110820  0.4999999819829118  0.2932372213645127
  0.1666689270310356  0.8333317135243998  0.2932390056356708
  0.4999999569495822  0.8333308432981352  0.2932373372004939
  0.8333311335394259  0.8333317126572493  0.2932389920676967
 -0.0000000262315479  0.0000000033340426  0.7932373994730414
  0.3333300862140546  0.0000000220238469  0.7932373821471083
  0.6666699406966204  0.0000000115423755  0.7932373140348222
 -0.0000000215340135  0.3333308609833366  0.7932373410461749
  0.3333310809470192  0.3333317084341271  0.7932390448797819
  0.6666689437736960  0.3333317209940933  0.7932390175536073
 -0.0000000132954984  0.6666691359266191  0.7932373680052854
  0.3333310003644979  0.6666682763260343  0.7932391554474688
  0.6666690041843949  0.6666682688326405  0.7932391616888248
 
  0.00000000E+00  0.00000000E+00  0.00000000E+00
  0.00000000E+00  0.00000000E+00  0.00000000E+00
  0.00000000E+00  0.00000000E+00  0.00000000E+00
  0.00000000E+00  0.00000000E+00  0.00000000E+00
  0.00000000E+00  0.00000000E+00  0.00000000E+00
  0.00000000E+00  0.00000000E+00  0.00000000E+00
  0.00000000E+00  0.00000000E+00  0.00000000E+00
  0.00000000E+00  0.00000000E+00  0.00000000E+00
  0.00000000E+00  0.00000000E+00  0.00000000E+00
  0.00000000E+00  0.00000000E+00  0.00000000E+00
  0.00000000E+00  0.00000000E+00  0.00000000E+00
  0.00000000E+00  0.00000000E+00  0.00000000E+00
  0.00000000E+00  0.00000000E+00  0.00000000E+00
  0.00000000E+00  0.00000000E+00  0.00000000E+00
  0.00000000E+00  0.00000000E+00  0.00000000E+00
  0.00000000E+00  0.00000000E+00  0.00000000E+00
  0.00000000E+00  0.00000000E+00  0.00000000E+00
  0.00000000E+00  0.00000000E+00  0.00000000E+00
  0.00000000E+00  0.00000000E+00  0.00000000E+00
  0.00000000E+00  0.00000000E+00  0.00000000E+00
  0.00000000E+00  0.00000000E+00  0.00000000E+00
  0.00000000E+00  0.00000000E+00  0.00000000E+00
  0.00000000E+00  0.00000000E+00  0.00000000E+00
  0.00000000E+00  0.00000000E+00  0.00000000E+00
  0.00000000E+00  0.00000000E+00  0.00000000E+00
  0.00000000E+00  0.00000000E+00  0.00000000E+00
  0.00000000E+00  0.00000000E+00  0.00000000E+00
  0.00000000E+00  0.00000000E+00  0.00000000E+00
  0.00000000E+00  0.00000000E+00  0.00000000E+00
  0.00000000E+00  0.00000000E+00  0.00000000E+00
  0.00000000E+00  0.00000000E+00  0.00000000E+00
  0.00000000E+00  0.00000000E+00  0.00000000E+00
  0.00000000E+00  0.00000000E+00  0.00000000E+00
  0.00000000E+00  0.00000000E+00  0.00000000E+00
  0.00000000E+00  0.00000000E+00  0.00000000E+00
  0.00000000E+00  0.00000000E+00  0.00000000E+00
  0.00000000E+00  0.00000000E+00  0.00000000E+00
  0.00000000E+00  0.00000000E+00  0.00000000E+00
  0.00000000E+00  0.00000000E+00  0.00000000E+00
  0.00000000E+00  0.00000000E+00  0.00000000E+00
  0.00000000E+00  0.00000000E+00  0.00000000E+00
  0.00000000E+00  0.00000000E+00  0.00000000E+00
  0.00000000E+00  0.00000000E+00  0.00000000E+00
  0.00000000E+00  0.00000000E+00  0.00000000E+00
  0.00000000E+00  0.00000000E+00  0.00000000E+00
  0.00000000E+00  0.00000000E+00  0.00000000E+00
  0.00000000E+00  0.00000000E+00  0.00000000E+00
  0.00000000E+00  0.00000000E+00  0.00000000E+00
  0.00000000E+00  0.00000000E+00  0.00000000E+00
  0.00000000E+00  0.00000000E+00  0.00000000E+00
  0.00000000E+00  0.00000000E+00  0.00000000E+00
  0.00000000E+00  0.00000000E+00  0.00000000E+00
  0.00000000E+00  0.00000000E+00  0.00000000E+00
  0.00000000E+00  0.00000000E+00  0.00000000E+00
  0.00000000E+00  0.00000000E+00  0.00000000E+00
  0.00000000E+00  0.00000000E+00  0.00000000E+00
  0.00000000E+00  0.00000000E+00  0.00000000E+00
  0.00000000E+00  0.00000000E+00  0.00000000E+00
  0.00000000E+00  0.00000000E+00  0.00000000E+00
  0.00000000E+00  0.00000000E+00  0.00000000E+00
  0.00000000E+00  0.00000000E+00  0.00000000E+00
  0.00000000E+00  0.00000000E+00  0.00000000E+00
  0.00000000E+00  0.00000000E+00  0.00000000E+00
  0.00000000E+00  0.00000000E+00  0.00000000E+00
  0.00000000E+00  0.00000000E+00  0.00000000E+00
  0.00000000E+00  0.00000000E+00  0.00000000E+00
  0.00000000E+00  0.00000000E+00  0.00000000E+00
  0.00000000E+00  0.00000000E+00  0.00000000E+00
  0.00000000E+00  0.00000000E+00  0.00000000E+00
  0.00000000E+00  0.00000000E+00  0.00000000E+00
  0.00000000E+00  0.00000000E+00  0.00000000E+00
  0.00000000E+00  0.00000000E+00  0.00000000E+00
  0.00000000E+00  0.00000000E+00  0.00000000E+00
  0.00000000E+00  0.00000000E+00  0.00000000E+00
  0.00000000E+00  0.00000000E+00  0.00000000E+00
  0.00000000E+00  0.00000000E+00  0.00000000E+00
  0.00000000E+00  0.00000000E+00  0.00000000E+00
  0.00000000E+00  0.00000000E+00  0.00000000E+00
  0.00000000E+00  0.00000000E+00  0.00000000E+00
  0.00000000E+00  0.00000000E+00  0.00000000E+00
  0.00000000E+00  0.00000000E+00  0.00000000E+00
  0.00000000E+00  0.00000000E+00  0.00000000E+00
  0.00000000E+00  0.00000000E+00  0.00000000E+00
  0.00000000E+00  0.00000000E+00  0.00000000E+00
  0.00000000E+00  0.00000000E+00  0.00000000E+00
  0.00000000E+00  0.00000000E+00  0.00000000E+00
  0.00000000E+00  0.00000000E+00  0.00000000E+00
  0.00000000E+00  0.00000000E+00  0.00000000E+00
  0.00000000E+00  0.00000000E+00  0.00000000E+00
  0.00000000E+00  0.00000000E+00  0.00000000E+00
  0.00000000E+00  0.00000000E+00  0.00000000E+00
  0.00000000E+00  0.00000000E+00  0.00000000E+00
  0.00000000E+00  0.00000000E+00  0.00000000E+00
  0.00000000E+00  0.00000000E+00  0.00000000E+00
  0.00000000E+00  0.00000000E+00  0.00000000E+00
  0.00000000E+00  0.00000000E+00  0.00000000E+00
  0.00000000E+00  0.00000000E+00  0.00000000E+00
  0.00000000E+00  0.00000000E+00  0.00000000E+00
  0.00000000E+00  0.00000000E+00  0.00000000E+00
  0.00000000E+00  0.00000000E+00  0.00000000E+00
  0.00000000E+00  0.00000000E+00  0.00000000E+00
  0.00000000E+00  0.00000000E+00  0.00000000E+00
  0.00000000E+00  0.00000000E+00  0.00000000E+00
  0.00000000E+00  0.00000000E+00  0.00000000E+00
  0.00000000E+00  0.00000000E+00  0.00000000E+00
  0.00000000E+00  0.00000000E+00  0.00000000E+00
  0.00000000E+00  0.00000000E+00  0.00000000E+00
  0.00000000E+00  0.00000000E+00  0.00000000E+00
