generated by phonopy                    
   1.00000000000000     
    11.4081287385000003    0.0000000000000000    0.0000000000000000
     0.0000000000000000   11.4081287385000003    0.0000000000000000
     0.0000000000000000    0.0000000000000000    9.7477521895999999
   Ti   O 
    36    72
Direct
  0.0000000007695388 -0.0000581709323667  0.9993854637299745
  0.3335961407877357  0.9998842073950459  0.9999288039870547
  0.6664038601456350  0.9998841851363555  0.9999288264732673
  0.0000000008642877  0.3333354868527090  0.0000889886208216
  0.3331993580415770  0.3333342212897967  0.0005847512202730
  0.6668006447358313  0.3333342188066515  0.0005847352084043
  0.0000000012627240  0.6667259357233702  0.9993843583110164
  0.3335949595748773  0.6667799699417807  0.9999289217326440
  0.6664050372306584  0.6667799941611300  0.9999289467686538
  0.1667295200093411  0.1666588545467595  0.4998822219895576
  0.5000000021864172  0.1671667357023999  0.5017354968081528
  0.8332704726337845  0.1666588550419600  0.4998822203694657
  0.1667284028043852  0.5000108262532299  0.4998817911726063
  0.4999999948354344  0.4994989178884019  0.5017355559425851
  0.8332715943365209  0.5000108243884407  0.4998817908475087
  0.1672041211574656  0.8333342521807185  0.4974533769113723
  0.4999999000854098  0.8333312459039369  0.5030240504878590
  0.8327958293170490  0.8333342661634039  0.4974534522091731
  0.9999999988239038  0.1665184252853921  0.2498038155683638
  0.3335792886287337  0.1664539270008936  0.2502003696522039
  0.6664207156454287  0.1664539271512397  0.2502003630143386
 -0.0000000028194079  0.5001503459682297  0.2498032488794413
  0.3335799135650309  0.5002143988924735  0.2502012980706650
  0.6664200865305887  0.5002143988423748  0.2502012882472579
  0.9999999938700392  0.8333358226281031  0.2495289748632540
  0.3354601019784220  0.8333340746360060  0.2499045256342701
  0.6645399119732998  0.8333340866633799  0.2499046656202797
  0.1669282475745210  0.9996308025248390  0.7496007044663794
  0.5000000092727757  0.9997470453931619  0.7491845713504501
  0.8330717467336328  0.9996308184992952  0.7496007251993850
  0.1667225353286532  0.3333342269131684  0.7501375324851235
  0.5000000024505149  0.3333318503853160  0.7516442325193181
  0.8332774674935315  0.3333342289638885  0.7501375218949836
  0.1669288181945902  0.6670349696049434  0.7496009680236139
  0.5000000050174038  0.6669097729039923  0.7491880958759470
  0.8330711832460426  0.6670349593921372  0.7496009904971002
  0.9999999959035720  0.0003018298906369  0.2058440446227327
  0.3316000682180530  0.0005271833139299  0.2061732346370064
  0.6683999299639045  0.0005271774565281  0.2061732343893213
  0.0000000011786939  0.3333334466663895  0.2065484353780000
  0.3331733711736055  0.3333328089778342  0.2071139425907488
  0.6668266302699722  0.3333328093077474  0.2071139215845756
  0.9999999978892047  0.6663683078723286  0.2058429120153869
  0.3315977827284489  0.6661399721379786  0.2061732084292889
  0.6684022137353842  0.6661399854410985  0.2061732299935793
  0.1663294321929599  0.1667185405106571  0.7065220791628635
  0.4999999802647462  0.1682155977160004  0.7104581255653045
  0.8336705686910454  0.1667185586542630  0.7065220819891493
  0.1663270293646418  0.4999496946038174  0.7065250771070736
  0.5000000044979059  0.4984487164617165  0.7104574985618108
  0.8336729749336365  0.4999496851744341  0.7065250702708014
  0.1674447852238953  0.8333326192669848  0.7059167551500128
  0.5000000107141382  0.8333283534618201  0.7161240971247974
  0.8325552255614903  0.8333326204933230  0.7059168449090995
  0.0000000012446271  0.1668571068695674  0.4562970686301113
  0.3328314919795234  0.1681618954255601  0.4564924982391799
  0.6671685224787861  0.1681619214667951  0.4564924637302109
  0.9999999995022318  0.4998236377466368  0.4562960185952873
  0.3328313318008501  0.4985204068773947  0.4564921155125655
  0.6671686607432861  0.4985204342827732  0.4564921057591133
 -0.0000000012554307  0.8333251281658823  0.4554791694571056
  0.3309881293987696  0.8333286083131985  0.4539827012330310
  0.6690118588033493  0.8333288689017152  0.4539827822039812
  0.1663324316310617  0.0004909550125824  0.9561354747773496
  0.4999999992797996  0.0014031006128955  0.9587887654932492
  0.8336675706345277  0.0004909787382921  0.9561354784449103
  0.1663046266248039  0.3333284277719880  0.9569796462482049
  0.4999999994188378  0.3333273396746506  0.9587873367501948
  0.8336953762643112  0.3333284276024427  0.9569796191641197
  0.1663313485135972  0.6661757484093398  0.9561318304051547
  0.4999999994875527  0.6652482294207055  0.9587922790887028
  0.8336686496165461  0.6661757235830797  0.9561318286784296
  0.1662423535103499  0.0002495308930147  0.5429518726644206
  0.5000001805120008  0.0061483189247676  0.5471959365093771
  0.8337576863901394  0.0002495530977938  0.5429519218192086
  0.1658530694071312  0.3333345157445947  0.5437186977942650
  0.5000000152302762  0.3333325127066923  0.5461481929750722
  0.8341469300797528  0.3333345185166331  0.5437186587787524
  0.1662423960177005  0.6664189937107839  0.5429536296380679
  0.4999999262003673  0.6605170851583197  0.5471989995790707
  0.8337575872981131  0.6664189966028828  0.5429536518484120
  0.0000000034481080  0.1668014075356128  0.0430681501037920
  0.3325720682231057  0.1669632661207298  0.0435586828097564
  0.6674279284771155  0.1669632601156702  0.0435586628823105
  0.0000000027649852  0.4998686823647676  0.0430665584326642
  0.3325686637095812  0.4997044297988393  0.0435590132063632
  0.6674313337283365  0.4997044375283299  0.0435589958829552
  0.9999999865959168  0.8333327204098986  0.0421630820406387
  0.3320635690015526  0.8333310222489640  0.0414744877273211
  0.6679364467381581  0.8333310233036717  0.0414745165065302
  0.1664421968604366  0.1669624950781513  0.2932577559673913
  0.4999999982554153  0.1663142567904242  0.2934542161074329
  0.8335578092344083  0.1669624940653188  0.2932577387246844
  0.1664422718648503  0.4997131207825808  0.2932572230055322
  0.4999999973833718  0.5003562331818070  0.2934535253365758
  0.8335577271932408  0.4997131196670982  0.2932572116555154
  0.1658844139793042  0.8333365163604102  0.2913425653273612
  0.4999999884109360  0.8333289098564666  0.2813454282130960
  0.8341155805021772  0.8333364954251575  0.2913426265023723
  0.0000000035979601  0.9996570436562774  0.7926470667586321
  0.3328921075772334  0.0012200392646367  0.7937198694131592
  0.6671078898477067  0.0012200357911023  0.7937198811942581
  0.0000000048855846  0.3333259606778932  0.7934796911028288
  0.3326831866029396  0.3333293825627273  0.7944949819161710
  0.6673168112081941  0.3333293797058693  0.7944949517514592
  0.0000000058554262  0.6670224317005214  0.7926458683378453
  0.3328929229595738  0.6654350288372411  0.7937226664199629
  0.6671070734898576  0.6654350274388167  0.7937226525214804
 
  0.00000000E+00  0.00000000E+00  0.00000000E+00
  0.00000000E+00  0.00000000E+00  0.00000000E+00
  0.00000000E+00  0.00000000E+00  0.00000000E+00
  0.00000000E+00  0.00000000E+00  0.00000000E+00
  0.00000000E+00  0.00000000E+00  0.00000000E+00
  0.00000000E+00  0.00000000E+00  0.00000000E+00
  0.00000000E+00  0.00000000E+00  0.00000000E+00
  0.00000000E+00  0.00000000E+00  0.00000000E+00
  0.00000000E+00  0.00000000E+00  0.00000000E+00
  0.00000000E+00  0.00000000E+00  0.00000000E+00
  0.00000000E+00  0.00000000E+00  0.00000000E+00
  0.00000000E+00  0.00000000E+00  0.00000000E+00
  0.00000000E+00  0.00000000E+00  0.00000000E+00
  0.00000000E+00  0.00000000E+00  0.00000000E+00
  0.00000000E+00  0.00000000E+00  0.00000000E+00
  0.00000000E+00  0.00000000E+00  0.00000000E+00
  0.00000000E+00  0.00000000E+00  0.00000000E+00
  0.00000000E+00  0.00000000E+00  0.00000000E+00
  0.00000000E+00  0.00000000E+00  0.00000000E+00
  0.00000000E+00  0.00000000E+00  0.00000000E+00
  0.00000000E+00  0.00000000E+00  0.00000000E+00
  0.00000000E+00  0.00000000E+00  0.00000000E+00
  0.00000000E+00  0.00000000E+00  0.00000000E+00
  0.00000000E+00  0.00000000E+00  0.00000000E+00
  0.00000000E+00  0.00000000E+00  0.00000000E+00
  0.00000000E+00  0.00000000E+00  0.00000000E+00
  0.00000000E+00  0.00000000E+00  0.00000000E+00
  0.00000000E+00  0.00000000E+00  0.00000000E+00
  0.00000000E+00  0.00000000E+00  0.00000000E+00
  0.00000000E+00  0.00000000E+00  0.00000000E+00
  0.00000000E+00  0.00000000E+00  0.00000000E+00
  0.00000000E+00  0.00000000E+00  0.00000000E+00
  0.00000000E+00  0.00000000E+00  0.00000000E+00
  0.00000000E+00  0.00000000E+00  0.00000000E+00
  0.00000000E+00  0.00000000E+00  0.00000000E+00
  0.00000000E+00  0.00000000E+00  0.00000000E+00
  0.00000000E+00  0.00000000E+00  0.00000000E+00
  0.00000000E+00  0.00000000E+00  0.00000000E+00
  0.00000000E+00  0.00000000E+00  0.00000000E+00
  0.00000000E+00  0.00000000E+00  0.00000000E+00
  0.00000000E+00  0.00000000E+00  0.00000000E+00
  0.00000000E+00  0.00000000E+00  0.00000000E+00
  0.00000000E+00  0.00000000E+00  0.00000000E+00
  0.00000000E+00  0.00000000E+00  0.00000000E+00
  0.00000000E+00  0.00000000E+00  0.00000000E+00
  0.00000000E+00  0.00000000E+00  0.00000000E+00
  0.00000000E+00  0.00000000E+00  0.00000000E+00
  0.00000000E+00  0.00000000E+00  0.00000000E+00
  0.00000000E+00  0.00000000E+00  0.00000000E+00
  0.00000000E+00  0.00000000E+00  0.00000000E+00
  0.00000000E+00  0.00000000E+00  0.00000000E+00
  0.00000000E+00  0.00000000E+00  0.00000000E+00
  0.00000000E+00  0.00000000E+00  0.00000000E+00
  0.00000000E+00  0.00000000E+00  0.00000000E+00
  0.00000000E+00  0.00000000E+00  0.00000000E+00
  0.00000000E+00  0.00000000E+00  0.00000000E+00
  0.00000000E+00  0.00000000E+00  0.00000000E+00
  0.00000000E+00  0.00000000E+00  0.00000000E+00
  0.00000000E+00  0.00000000E+00  0.00000000E+00
  0.00000000E+00  0.00000000E+00  0.00000000E+00
  0.00000000E+00  0.00000000E+00  0.00000000E+00
  0.00000000E+00  0.00000000E+00  0.00000000E+00
  0.00000000E+00  0.00000000E+00  0.00000000E+00
  0.00000000E+00  0.00000000E+00  0.00000000E+00
  0.00000000E+00  0.00000000E+00  0.00000000E+00
  0.00000000E+00  0.00000000E+00  0.00000000E+00
  0.00000000E+00  0.00000000E+00  0.00000000E+00
  0.00000000E+00  0.00000000E+00  0.00000000E+00
  0.00000000E+00  0.00000000E+00  0.00000000E+00
  0.00000000E+00  0.00000000E+00  0.00000000E+00
  0.00000000E+00  0.00000000E+00  0.00000000E+00
  0.00000000E+00  0.00000000E+00  0.00000000E+00
  0.00000000E+00  0.00000000E+00  0.00000000E+00
  0.00000000E+00  0.00000000E+00  0.00000000E+00
  0.00000000E+00  0.00000000E+00  0.00000000E+00
  0.00000000E+00  0.00000000E+00  0.00000000E+00
  0.00000000E+00  0.00000000E+00  0.00000000E+00
  0.00000000E+00  0.00000000E+00  0.00000000E+00
  0.00000000E+00  0.00000000E+00  0.00000000E+00
  0.00000000E+00  0.00000000E+00  0.00000000E+00
  0.00000000E+00  0.00000000E+00  0.00000000E+00
  0.00000000E+00  0.00000000E+00  0.00000000E+00
  0.00000000E+00  0.00000000E+00  0.00000000E+00
  0.00000000E+00  0.00000000E+00  0.00000000E+00
  0.00000000E+00  0.00000000E+00  0.00000000E+00
  0.00000000E+00  0.00000000E+00  0.00000000E+00
  0.00000000E+00  0.00000000E+00  0.00000000E+00
  0.00000000E+00  0.00000000E+00  0.00000000E+00
  0.00000000E+00  0.00000000E+00  0.00000000E+00
  0.00000000E+00  0.00000000E+00  0.00000000E+00
  0.00000000E+00  0.00000000E+00  0.00000000E+00
  0.00000000E+00  0.00000000E+00  0.00000000E+00
  0.00000000E+00  0.00000000E+00  0.00000000E+00
  0.00000000E+00  0.00000000E+00  0.00000000E+00
  0.00000000E+00  0.00000000E+00  0.00000000E+00
  0.00000000E+00  0.00000000E+00  0.00000000E+00
  0.00000000E+00  0.00000000E+00  0.00000000E+00
  0.00000000E+00  0.00000000E+00  0.00000000E+00
  0.00000000E+00  0.00000000E+00  0.00000000E+00
  0.00000000E+00  0.00000000E+00  0.00000000E+00
  0.00000000E+00  0.00000000E+00  0.00000000E+00
  0.00000000E+00  0.00000000E+00  0.00000000E+00
  0.00000000E+00  0.00000000E+00  0.00000000E+00
  0.00000000E+00  0.00000000E+00  0.00000000E+00
  0.00000000E+00  0.00000000E+00  0.00000000E+00
  0.00000000E+00  0.00000000E+00  0.00000000E+00
  0.00000000E+00  0.00000000E+00  0.00000000E+00
  0.00000000E+00  0.00000000E+00  0.00000000E+00
