generated by phonopy                    
   1.00000000000000     
    11.4081287385000003    0.0000000000000000    0.0000000000000000
     0.0000000000000000   11.4081287385000003    0.0000000000000000
     0.0000000000000000    0.0000000000000000    9.7477521895999999
   Ti   O 
    36    72
Direct
 -0.0000000011980869  0.0001805593859774 -0.0007688543314623
  0.3334791774104229 -0.0001477955016938 -0.0000015777149625
  0.6665208256146083 -0.0001477816316823 -0.0000016105530437
 -0.0000000018163271  0.3333329924448188  0.0000001676950926
  0.3331505805336514  0.3333329903453370  0.0007697651231505
  0.6668494202683296  0.3333329912540577  0.0007697359370631
 -0.0000000012109948  0.6664823715446355 -0.0007703845630975
  0.3334783125439066  0.6668104549119716 -0.0000003246868851
  0.6665216830753307  0.6668104510125172 -0.0000003565458076
  0.1666777925385823  0.1666537187538647  0.5000009129374461
  0.5000000008239560  0.1666804534826888  0.5028483537894851
  0.8333222069918160  0.1666537215684535  0.5000008990148957
  0.1666774073325747  0.5000139757561013  0.5000009059141062
  0.5000000007747494  0.4999983739658661  0.5028492922799351
  0.8333225916236979  0.5000139749275366  0.5000008924839939
  0.1666571937232441  0.8333338580117441  0.4971497228453876
  0.5000000174521000  0.8333405347063323  0.5000007690150634
  0.8333428046664062  0.8333338589338459  0.4971496767011555
  0.0000000024289742  0.1665516283152007  0.2498467253308826
  0.3337185941924017  0.1664685735087152  0.2506030489065755
  0.6662814039939867  0.1664685786165498  0.2506030363251467
  0.0000000035008362  0.5001100551802886  0.2498468630237158
  0.3337191746980199  0.5001978862216611  0.2506040213633808
  0.6662808223373101  0.5001978851859364  0.2506040070138777
  0.0000000053943163  0.8333317596199667  0.2480641396250141
  0.3335005926763333  0.8333341965289889  0.2501749370857408
  0.6664994041528584  0.8333342016124474  0.2501748606389502
  0.1668618830405190 -0.0003887112278801  0.7493945738027842
  0.4999999975341302 -0.0001670980185209  0.7498256399363756
  0.8331381175915883 -0.0003887120818160  0.7493945491217276
  0.1667783343669922  0.3333326581530973  0.7501533020872069
  0.4999999957114287  0.3333356322244839  0.7519369303204331
  0.8332216692442630  0.3333326581115094  0.7501532893849230
  0.1668633898752257  0.6670515540988979  0.7493954964071514
  0.4999999951048344  0.6668341371133555  0.7498275885998847
  0.8331366097726906  0.6670515581491057  0.7493954746859431
  0.0000000145971661  0.0005887663177104  0.2053460338090866
  0.3324396734385309  0.0004257932224381  0.2062492110113503
  0.6675603172997925  0.0004257983693588  0.2062491583954200
 -0.0000000008417460  0.3333304422851634  0.2065142613526433
  0.3333550733453193  0.3333318994314206  0.2073365526367432
  0.6666449262910662  0.3333319033668021  0.2073365284735815
  0.0000000141799899  0.6660741913826528  0.2053449596268084
  0.3324359048879496  0.6662401605277244  0.2062499886741027
  0.6675640826673074  0.6662401587976644  0.2062499320650936
  0.1666125006224919  0.1667671833767730  0.7067122348184626
  0.4999999901581236  0.1681272794350527  0.7111125506800834
  0.8333875083275605  0.1667671872522680  0.7067122218105250
  0.1666107223132733  0.4998988331084471  0.7067152265884118
  0.4999999900336283  0.4985461514338365  0.7111110701045105
  0.8333892858476053  0.4998988337269227  0.7067152133472154
  0.1671600282183439  0.8333315970015138  0.7056411539538291
  0.5000000075191194  0.8333335349770969  0.7127212053545929
  0.8328399623079051  0.8333315963781520  0.7056411361473381
  0.0000000005758427  0.1674409236727079  0.4561215934778358
  0.3328374952743930  0.1679967104609926  0.4569317695112666
  0.6671625026939170  0.1679967180517723  0.4569317423158898
 -0.0000000005082439  0.4992439757991842  0.4561219718688738
  0.3328380097555239  0.4986898055050167  0.4569315411534846
  0.6671619905804029  0.4986897991708482  0.4569315130266079
 -0.0000000105851873  0.8333216432304626  0.4537757021697292
  0.3277339264110683  0.8333422200117768  0.4517131656252481
  0.6722660863488387  0.8333422200904710  0.4517130492497727
  0.1664025467547376  0.0005330798948202  0.9561971923407693
  0.4999999989360542  0.0009491877797583  0.9585452217414775
  0.8335974566159389  0.0005330748442963  0.9561971604446510
  0.1663990074538974  0.3333259013477564  0.9570616333152573
  0.4999999998546213  0.3333261191673003  0.9589169962679642
  0.8336009913398211  0.3333259018146089  0.9570616004619922
  0.1664017450168912  0.6661298254617991  0.9561941753084157
  0.5000000002102223  0.6657080561588036  0.9585488377281366
  0.8335982529194290  0.6661298295259116  0.9561941433878095
  0.1653284408740268  0.0004927551514526  0.5430669241681216
  0.5000000123959956  0.0056058434344758  0.5482909651519182
  0.8346715429545641  0.0004927566163942  0.5430668718788840
  0.1659056481333528  0.3333337686661824  0.5438822210862294
  0.5000000030815805  0.3333373400489376  0.5462236320599778
  0.8340943503345480  0.3333337700212046  0.5438821812869733
  0.1653384551758505  0.6661741944528051  0.5430684981974729
  0.5000000127911265  0.6610737170707010  0.5482908322859125
  0.8346615268222283  0.6661741920797527  0.5430684456657797
 -0.0000000041044377  0.1669333490019643  0.0429374555927482
  0.3327870673263288  0.1669307992761516  0.0438012338511035
  0.6672129348570542  0.1669308095495153  0.0438011982357310
 -0.0000000051675529  0.4997315664108501  0.0429360915395699
  0.3327849812591492  0.4997349196963788  0.0438008759240838
  0.6672150231094175  0.4997349168945030  0.0438008406236716
  0.0000000057921088  0.8333300051427114  0.0410864314465770
  0.3323733561235265  0.8333307465593752  0.0414547730338590
  0.6676266348888961  0.8333307470767926  0.0414546982930672
  0.1665660386527444  0.1667341109384344  0.2932883180330974
  0.4999999991570688  0.1661871448193135  0.2943547006852799
  0.8334339633431487  0.1667341035052292  0.2932882990323507
  0.1665662037586171  0.4999340076017094  0.2932880683265775
  0.5000000002089880  0.5004804346573385  0.2943538961564447
  0.8334337958458136  0.4999340168455480  0.2932880487857623
  0.1652091331193583  0.8333387936221520  0.2888886449907704
  0.4999999978899713  0.8333249815302719  0.2872774003508693
  0.8347908761546303  0.8333387935717416  0.2888885334384069
  0.0000000014151249 -0.0000319845353523  0.7926635119550942
  0.3329042544447909  0.0008817022733992  0.7937493436487166
  0.6670957452867379  0.0008817196354898  0.7937493012291184
  0.0000000017403683  0.3333240010573980  0.7934826039502527
  0.3327423607819951  0.3333301684675976  0.7946567088699606
  0.6672576361992848  0.3333301697277243  0.7946566720352896
 -0.0000000016095607  0.6667032257404504  0.7926617329459422
  0.3329057985382649  0.6657769899727021  0.7937531090802642
  0.6670942007986176  0.6657769758550584  0.7937530709178681
 
  0.00000000E+00  0.00000000E+00  0.00000000E+00
  0.00000000E+00  0.00000000E+00  0.00000000E+00
  0.00000000E+00  0.00000000E+00  0.00000000E+00
  0.00000000E+00  0.00000000E+00  0.00000000E+00
  0.00000000E+00  0.00000000E+00  0.00000000E+00
  0.00000000E+00  0.00000000E+00  0.00000000E+00
  0.00000000E+00  0.00000000E+00  0.00000000E+00
  0.00000000E+00  0.00000000E+00  0.00000000E+00
  0.00000000E+00  0.00000000E+00  0.00000000E+00
  0.00000000E+00  0.00000000E+00  0.00000000E+00
  0.00000000E+00  0.00000000E+00  0.00000000E+00
  0.00000000E+00  0.00000000E+00  0.00000000E+00
  0.00000000E+00  0.00000000E+00  0.00000000E+00
  0.00000000E+00  0.00000000E+00  0.00000000E+00
  0.00000000E+00  0.00000000E+00  0.00000000E+00
  0.00000000E+00  0.00000000E+00  0.00000000E+00
  0.00000000E+00  0.00000000E+00  0.00000000E+00
  0.00000000E+00  0.00000000E+00  0.00000000E+00
  0.00000000E+00  0.00000000E+00  0.00000000E+00
  0.00000000E+00  0.00000000E+00  0.00000000E+00
  0.00000000E+00  0.00000000E+00  0.00000000E+00
  0.00000000E+00  0.00000000E+00  0.00000000E+00
  0.00000000E+00  0.00000000E+00  0.00000000E+00
  0.00000000E+00  0.00000000E+00  0.00000000E+00
  0.00000000E+00  0.00000000E+00  0.00000000E+00
  0.00000000E+00  0.00000000E+00  0.00000000E+00
  0.00000000E+00  0.00000000E+00  0.00000000E+00
  0.00000000E+00  0.00000000E+00  0.00000000E+00
  0.00000000E+00  0.00000000E+00  0.00000000E+00
  0.00000000E+00  0.00000000E+00  0.00000000E+00
  0.00000000E+00  0.00000000E+00  0.00000000E+00
  0.00000000E+00  0.00000000E+00  0.00000000E+00
  0.00000000E+00  0.00000000E+00  0.00000000E+00
  0.00000000E+00  0.00000000E+00  0.00000000E+00
  0.00000000E+00  0.00000000E+00  0.00000000E+00
  0.00000000E+00  0.00000000E+00  0.00000000E+00
  0.00000000E+00  0.00000000E+00  0.00000000E+00
  0.00000000E+00  0.00000000E+00  0.00000000E+00
  0.00000000E+00  0.00000000E+00  0.00000000E+00
  0.00000000E+00  0.00000000E+00  0.00000000E+00
  0.00000000E+00  0.00000000E+00  0.00000000E+00
  0.00000000E+00  0.00000000E+00  0.00000000E+00
  0.00000000E+00  0.00000000E+00  0.00000000E+00
  0.00000000E+00  0.00000000E+00  0.00000000E+00
  0.00000000E+00  0.00000000E+00  0.00000000E+00
  0.00000000E+00  0.00000000E+00  0.00000000E+00
  0.00000000E+00  0.00000000E+00  0.00000000E+00
  0.00000000E+00  0.00000000E+00  0.00000000E+00
  0.00000000E+00  0.00000000E+00  0.00000000E+00
  0.00000000E+00  0.00000000E+00  0.00000000E+00
  0.00000000E+00  0.00000000E+00  0.00000000E+00
  0.00000000E+00  0.00000000E+00  0.00000000E+00
  0.00000000E+00  0.00000000E+00  0.00000000E+00
  0.00000000E+00  0.00000000E+00  0.00000000E+00
  0.00000000E+00  0.00000000E+00  0.00000000E+00
  0.00000000E+00  0.00000000E+00  0.00000000E+00
  0.00000000E+00  0.00000000E+00  0.00000000E+00
  0.00000000E+00  0.00000000E+00  0.00000000E+00
  0.00000000E+00  0.00000000E+00  0.00000000E+00
  0.00000000E+00  0.00000000E+00  0.00000000E+00
  0.00000000E+00  0.00000000E+00  0.00000000E+00
  0.00000000E+00  0.00000000E+00  0.00000000E+00
  0.00000000E+00  0.00000000E+00  0.00000000E+00
  0.00000000E+00  0.00000000E+00  0.00000000E+00
  0.00000000E+00  0.00000000E+00  0.00000000E+00
  0.00000000E+00  0.00000000E+00  0.00000000E+00
  0.00000000E+00  0.00000000E+00  0.00000000E+00
  0.00000000E+00  0.00000000E+00  0.00000000E+00
  0.00000000E+00  0.00000000E+00  0.00000000E+00
  0.00000000E+00  0.00000000E+00  0.00000000E+00
  0.00000000E+00  0.00000000E+00  0.00000000E+00
  0.00000000E+00  0.00000000E+00  0.00000000E+00
  0.00000000E+00  0.00000000E+00  0.00000000E+00
  0.00000000E+00  0.00000000E+00  0.00000000E+00
  0.00000000E+00  0.00000000E+00  0.00000000E+00
  0.00000000E+00  0.00000000E+00  0.00000000E+00
  0.00000000E+00  0.00000000E+00  0.00000000E+00
  0.00000000E+00  0.00000000E+00  0.00000000E+00
  0.00000000E+00  0.00000000E+00  0.00000000E+00
  0.00000000E+00  0.00000000E+00  0.00000000E+00
  0.00000000E+00  0.00000000E+00  0.00000000E+00
  0.00000000E+00  0.00000000E+00  0.00000000E+00
  0.00000000E+00  0.00000000E+00  0.00000000E+00
  0.00000000E+00  0.00000000E+00  0.00000000E+00
  0.00000000E+00  0.00000000E+00  0.00000000E+00
  0.00000000E+00  0.00000000E+00  0.00000000E+00
  0.00000000E+00  0.00000000E+00  0.00000000E+00
  0.00000000E+00  0.00000000E+00  0.00000000E+00
  0.00000000E+00  0.00000000E+00  0.00000000E+00
  0.00000000E+00  0.00000000E+00  0.00000000E+00
  0.00000000E+00  0.00000000E+00  0.00000000E+00
  0.00000000E+00  0.00000000E+00  0.00000000E+00
  0.00000000E+00  0.00000000E+00  0.00000000E+00
  0.00000000E+00  0.00000000E+00  0.00000000E+00
  0.00000000E+00  0.00000000E+00  0.00000000E+00
  0.00000000E+00  0.00000000E+00  0.00000000E+00
  0.00000000E+00  0.00000000E+00  0.00000000E+00
  0.00000000E+00  0.00000000E+00  0.00000000E+00
  0.00000000E+00  0.00000000E+00  0.00000000E+00
  0.00000000E+00  0.00000000E+00  0.00000000E+00
  0.00000000E+00  0.00000000E+00  0.00000000E+00
  0.00000000E+00  0.00000000E+00  0.00000000E+00
  0.00000000E+00  0.00000000E+00  0.00000000E+00
  0.00000000E+00  0.00000000E+00  0.00000000E+00
  0.00000000E+00  0.00000000E+00  0.00000000E+00
  0.00000000E+00  0.00000000E+00  0.00000000E+00
  0.00000000E+00  0.00000000E+00  0.00000000E+00
  0.00000000E+00  0.00000000E+00  0.00000000E+00
