generated by phonopy                    
   1.00000000000000     
    11.4081287385000003    0.0000000000000000    0.0000000000000000
     0.0000000000000000   11.4081287385000003    0.0000000000000000
     0.0000000000000000    0.0000000000000000    9.7477521895999999
   Ti   O 
    36    72
Direct
 -0.0000000078792852  0.0000288977981310  0.9999272654421195
  0.3333378984188761  0.9999967866164804  0.0000000467094563
  0.6666621010025799  0.9999967988211991  0.0000000475855542
  0.0000000307237340  0.3333344961197970 -0.0000000659385043
  0.3333048328608120  0.3333336398957413  0.0000726192548846
  0.6666951503574878  0.3333336459196168  0.0000725995944203
 -0.0000000180485888  0.6666374558177448  0.9999274743438069
  0.3333369249045670  0.6666704088590992  0.0000001159019706
  0.6666630892881392  0.6666704042866284  0.0000001508473624
  0.1666554272493511  0.1666776100950539  0.5000001216176488
  0.4999999984669358  0.1667208872538137  0.5000620486773375
  0.8333445718871736  0.1666775990475124  0.5000001142429569
  0.1666545531307660  0.4999889697679025  0.5000003037060768
  0.5000000033227640  0.4999424843025072  0.5000626195981211
  0.8333454510678698  0.4999889815032581  0.5000002987176022
  0.1666100725880753  0.8333330554993497  0.4999372787914878
  0.4999999842743773  0.8333325647709710  0.4999995443073268
  0.8333899253705598  0.8333330533811204  0.4999372551655907
  0.0000000050694215  0.1666641847258404  0.2499738894278028
  0.3333521446504384  0.1666571937642690  0.2500101455824738
  0.6666478550839331  0.1666572219243561  0.2500101405950288
  0.0000000251240555  0.5000016459050690  0.2499736256641422
  0.3333530591993106  0.5000100921174094  0.2500099541153228
  0.6666469325678175  0.5000100923157972  0.2500099707143862
 -0.0000000271770005  0.8333343870336514  0.2498224871088552
  0.3333316777642461  0.8333337240615456  0.2500084237361959
  0.6666683203496756  0.8333337203671797  0.2500083979552471
  0.1666754371525641 -0.0000188476558086  0.7499895461200944
  0.4999999891916706  0.0000009923580027  0.7499909662501467
  0.8333245602309373 -0.0000188633205310  0.7499895172512879
  0.1666681973627686  0.3333335069467435  0.7500265148511203
  0.5000000347408775  0.3333335722855077  0.7501774017233284
  0.8333317901204498  0.3333335071762141  0.7500264791171546
  0.1666762184253379  0.6666854477715620  0.7499901491057863
  0.4999999893560386  0.6666634460606328  0.7499919606238175
  0.8333238010744110  0.6666854689282717  0.7499901576912651
 -0.0000000276085568 -0.0000100467219100  0.2066763994741490
  0.3333649201713966  0.0000006502335310  0.2068002145148247
  0.6666351014804343  0.0000006426762010  0.2068002160511564
  0.0000000207035136  0.3333321519467742  0.2067742354772081
  0.3332695549460621  0.3333329682654497  0.2068058168684734
  0.6667304372669137  0.3333329688533634  0.2068058295765624
 -0.0000000007402871  0.6666782716416275  0.2066753532822972
  0.3333664398863156  0.6666672171019141  0.2067972308105765
  0.6666335552620209  0.6666672442368747  0.2067972297351160
  0.1667096909309197  0.1666631423294958  0.7067914243277119
  0.5000000138272668  0.1666656941297752  0.7068358246982839
  0.8332902967412971  0.1666631744751783  0.7067914087516730
  0.1667114646174827  0.5000041926200361  0.7067945715258519
  0.5000000067540282  0.5000007598793509  0.7068381663746590
  0.8332885398335447  0.5000041680052014  0.7067945576286166
  0.1666218333228771  0.8333327411128290  0.7067357125520309
  0.4999999939274514  0.8333315238872993  0.7067783045850441
  0.8333781699958219  0.8333327365764754  0.7067356932972368
 -0.0000000093074457  0.1667615320500543  0.4567271086154868
  0.3333234103383095  0.1667971066138214  0.4568010235470439
  0.6666765972818832  0.1667971088664358  0.4568010228778550
  0.0000000148722785  0.4999127684852925  0.4567261796355955
  0.3333227902374884  0.4998769234970707  0.4568018373144919
  0.6666772026834789  0.4998769393284549  0.4568018281941242
 -0.0000000040219095  0.8333262958136980  0.4565614287439602
  0.3332998804839054  0.8333257494894434  0.4568397230980034
  0.6667001004065707  0.8333257384424344  0.4568397292820515
  0.1666985879903966  0.0000172380851953  0.9567647850813022
  0.4999999895840294 -0.0000092866302890  0.9567522132656510
  0.8333014135319405  0.0000172548869288  0.9567647571032695
  0.1666420960251870  0.3333280055784877  0.9568217856715199
  0.5000000050117094  0.3333261763510155  0.9569511498578389
  0.8333579171235399  0.3333280162491758  0.9568218079655262
  0.1666979522736138  0.6666551499665225  0.9567643404862956
  0.5000000025704083  0.6666835030371412  0.9567535909715295
  0.8333020475877100  0.6666551279705241  0.9567643467343757
  0.1665486358827076  0.0000089690412984  0.5431960642763117
  0.5000000009229412  0.0000312916963651  0.5431571774502122
  0.8334513571861585  0.0000089902295496  0.5431960266987728
  0.1665840675058321  0.3333328284022892  0.5432761265507799
  0.5000000126227141  0.3333314332166764  0.5434396473295854
  0.8334159279380740  0.3333328257532691  0.5432761275208605
  0.1665457477823513  0.6666580202560083  0.5431996342699024
  0.4999999952359188  0.6666341644930057  0.5431599804744124
  0.8334542576375084  0.6666580036372239  0.5431996190195498
  0.0000000055334375  0.1666932483706729  0.0431775939585523
  0.3333105644394506  0.1666368721465629  0.0432360602834692
  0.6666894324561734  0.1666368744963163  0.0432360645332637
  0.0000000196966673  0.4999750763074782  0.0431761551625167
  0.3333091585136208  0.5000308350083067  0.0432331003494753
  0.6666908245392663  0.5000308526292749  0.0432331068565394
 -0.0000000202081045  0.8333322823438158  0.0430506014877646
  0.3333375005283946  0.8333330405642072  0.0432495084674670
  0.6666625054026075  0.8333330349600901  0.0432495169579817
  0.1666713587954437  0.1666347620479821  0.2932086496765320
  0.4999999897116342  0.1667238897093588  0.2932610259076180
  0.8333286532005066  0.1666348008780962  0.2932086458164704
  0.1666720593952119  0.5000374279325955  0.2932077165644171
  0.5000000091185638  0.4999495885968596  0.2932619138144703
  0.8333279423816372  0.5000374175681549  0.2932076949576338
  0.1666689783794178  0.8333282265327405  0.2931638223736789
  0.4999999828824495  0.8333265525293536  0.2932198735289607
  0.8333310152205660  0.8333282005262642  0.2931638193032192
 -0.0000000149310700  0.0000580986293862  0.7931920264855326
  0.3333318060984052  0.9999618383133355  0.7932015216462895
  0.6666681979936956  0.9999618175506355  0.7932015041106139
  0.0000000079054791  0.3333264273911059  0.7932239780489437
  0.3333429813533385  0.3333276662380832  0.7933259774986093
  0.6666570297254529  0.3333276811234930  0.7933259942933594
  0.0000000125993012  0.6666155327675032  0.7931919022200886
  0.3333323899740619  0.6667108184382289  0.7932028309846585
  0.6666676013154407  0.6667108278219335  0.7932028289453549
 
  0.00000000E+00  0.00000000E+00  0.00000000E+00
  0.00000000E+00  0.00000000E+00  0.00000000E+00
  0.00000000E+00  0.00000000E+00  0.00000000E+00
  0.00000000E+00  0.00000000E+00  0.00000000E+00
  0.00000000E+00  0.00000000E+00  0.00000000E+00
  0.00000000E+00  0.00000000E+00  0.00000000E+00
  0.00000000E+00  0.00000000E+00  0.00000000E+00
  0.00000000E+00  0.00000000E+00  0.00000000E+00
  0.00000000E+00  0.00000000E+00  0.00000000E+00
  0.00000000E+00  0.00000000E+00  0.00000000E+00
  0.00000000E+00  0.00000000E+00  0.00000000E+00
  0.00000000E+00  0.00000000E+00  0.00000000E+00
  0.00000000E+00  0.00000000E+00  0.00000000E+00
  0.00000000E+00  0.00000000E+00  0.00000000E+00
  0.00000000E+00  0.00000000E+00  0.00000000E+00
  0.00000000E+00  0.00000000E+00  0.00000000E+00
  0.00000000E+00  0.00000000E+00  0.00000000E+00
  0.00000000E+00  0.00000000E+00  0.00000000E+00
  0.00000000E+00  0.00000000E+00  0.00000000E+00
  0.00000000E+00  0.00000000E+00  0.00000000E+00
  0.00000000E+00  0.00000000E+00  0.00000000E+00
  0.00000000E+00  0.00000000E+00  0.00000000E+00
  0.00000000E+00  0.00000000E+00  0.00000000E+00
  0.00000000E+00  0.00000000E+00  0.00000000E+00
  0.00000000E+00  0.00000000E+00  0.00000000E+00
  0.00000000E+00  0.00000000E+00  0.00000000E+00
  0.00000000E+00  0.00000000E+00  0.00000000E+00
  0.00000000E+00  0.00000000E+00  0.00000000E+00
  0.00000000E+00  0.00000000E+00  0.00000000E+00
  0.00000000E+00  0.00000000E+00  0.00000000E+00
  0.00000000E+00  0.00000000E+00  0.00000000E+00
  0.00000000E+00  0.00000000E+00  0.00000000E+00
  0.00000000E+00  0.00000000E+00  0.00000000E+00
  0.00000000E+00  0.00000000E+00  0.00000000E+00
  0.00000000E+00  0.00000000E+00  0.00000000E+00
  0.00000000E+00  0.00000000E+00  0.00000000E+00
  0.00000000E+00  0.00000000E+00  0.00000000E+00
  0.00000000E+00  0.00000000E+00  0.00000000E+00
  0.00000000E+00  0.00000000E+00  0.00000000E+00
  0.00000000E+00  0.00000000E+00  0.00000000E+00
  0.00000000E+00  0.00000000E+00  0.00000000E+00
  0.00000000E+00  0.00000000E+00  0.00000000E+00
  0.00000000E+00  0.00000000E+00  0.00000000E+00
  0.00000000E+00  0.00000000E+00  0.00000000E+00
  0.00000000E+00  0.00000000E+00  0.00000000E+00
  0.00000000E+00  0.00000000E+00  0.00000000E+00
  0.00000000E+00  0.00000000E+00  0.00000000E+00
  0.00000000E+00  0.00000000E+00  0.00000000E+00
  0.00000000E+00  0.00000000E+00  0.00000000E+00
  0.00000000E+00  0.00000000E+00  0.00000000E+00
  0.00000000E+00  0.00000000E+00  0.00000000E+00
  0.00000000E+00  0.00000000E+00  0.00000000E+00
  0.00000000E+00  0.00000000E+00  0.00000000E+00
  0.00000000E+00  0.00000000E+00  0.00000000E+00
  0.00000000E+00  0.00000000E+00  0.00000000E+00
  0.00000000E+00  0.00000000E+00  0.00000000E+00
  0.00000000E+00  0.00000000E+00  0.00000000E+00
  0.00000000E+00  0.00000000E+00  0.00000000E+00
  0.00000000E+00  0.00000000E+00  0.00000000E+00
  0.00000000E+00  0.00000000E+00  0.00000000E+00
  0.00000000E+00  0.00000000E+00  0.00000000E+00
  0.00000000E+00  0.00000000E+00  0.00000000E+00
  0.00000000E+00  0.00000000E+00  0.00000000E+00
  0.00000000E+00  0.00000000E+00  0.00000000E+00
  0.00000000E+00  0.00000000E+00  0.00000000E+00
  0.00000000E+00  0.00000000E+00  0.00000000E+00
  0.00000000E+00  0.00000000E+00  0.00000000E+00
  0.00000000E+00  0.00000000E+00  0.00000000E+00
  0.00000000E+00  0.00000000E+00  0.00000000E+00
  0.00000000E+00  0.00000000E+00  0.00000000E+00
  0.00000000E+00  0.00000000E+00  0.00000000E+00
  0.00000000E+00  0.00000000E+00  0.00000000E+00
  0.00000000E+00  0.00000000E+00  0.00000000E+00
  0.00000000E+00  0.00000000E+00  0.00000000E+00
  0.00000000E+00  0.00000000E+00  0.00000000E+00
  0.00000000E+00  0.00000000E+00  0.00000000E+00
  0.00000000E+00  0.00000000E+00  0.00000000E+00
  0.00000000E+00  0.00000000E+00  0.00000000E+00
  0.00000000E+00  0.00000000E+00  0.00000000E+00
  0.00000000E+00  0.00000000E+00  0.00000000E+00
  0.00000000E+00  0.00000000E+00  0.00000000E+00
  0.00000000E+00  0.00000000E+00  0.00000000E+00
  0.00000000E+00  0.00000000E+00  0.00000000E+00
  0.00000000E+00  0.00000000E+00  0.00000000E+00
  0.00000000E+00  0.00000000E+00  0.00000000E+00
  0.00000000E+00  0.00000000E+00  0.00000000E+00
  0.00000000E+00  0.00000000E+00  0.00000000E+00
  0.00000000E+00  0.00000000E+00  0.00000000E+00
  0.00000000E+00  0.00000000E+00  0.00000000E+00
  0.00000000E+00  0.00000000E+00  0.00000000E+00
  0.00000000E+00  0.00000000E+00  0.00000000E+00
  0.00000000E+00  0.00000000E+00  0.00000000E+00
  0.00000000E+00  0.00000000E+00  0.00000000E+00
  0.00000000E+00  0.00000000E+00  0.00000000E+00
  0.00000000E+00  0.00000000E+00  0.00000000E+00
  0.00000000E+00  0.00000000E+00  0.00000000E+00
  0.00000000E+00  0.00000000E+00  0.00000000E+00
  0.00000000E+00  0.00000000E+00  0.00000000E+00
  0.00000000E+00  0.00000000E+00  0.00000000E+00
  0.00000000E+00  0.00000000E+00  0.00000000E+00
  0.00000000E+00  0.00000000E+00  0.00000000E+00
  0.00000000E+00  0.00000000E+00  0.00000000E+00
  0.00000000E+00  0.00000000E+00  0.00000000E+00
  0.00000000E+00  0.00000000E+00  0.00000000E+00
  0.00000000E+00  0.00000000E+00  0.00000000E+00
  0.00000000E+00  0.00000000E+00  0.00000000E+00
  0.00000000E+00  0.00000000E+00  0.00000000E+00
  0.00000000E+00  0.00000000E+00  0.00000000E+00
