generated by phonopy                    
   1.00000000000000     
    11.4081287385000003    0.0000000000000000    0.0000000000000000
     0.0000000000000000   11.4081287385000003    0.0000000000000000
     0.0000000000000000    0.0000000000000000    9.7477521895999999
   Ti   O 
    36    72
Direct
 -0.0000000026323502  0.0000292069206676  0.9999273161853500
  0.3333381206857138  0.9999965388272068  0.0000000605367518
  0.6666618808663376  0.9999965449757899  0.0000000576143042
 -0.0000000002580185  0.3333344997255498 -0.0000000972383140
  0.3333045441908796  0.3333336483138271  0.0000725960078584
  0.6666954534829217  0.3333336462401256  0.0000725911384900
 -0.0000000012070029  0.6666371341431456  0.9999274784083889
  0.3333371631821956  0.6666706534829785  0.0000001333716395
  0.6666628311290380  0.6666706560416419  0.0000001286903297
  0.1666553480158543  0.1666776786342188  0.5000001182371517
  0.5000000019942810  0.1667212348874886  0.5000618982708284
  0.8333446515445465  0.1666776735434851  0.5000001149878631
  0.1666544842954713  0.4999888996347368  0.5000002710752318
  0.4999999984974467  0.4999421799434858  0.5000624798503669
  0.8333455141373067  0.4999889004649787  0.5000002649093154
  0.1666097276204214  0.8333330383124806  0.4999374334803350
  0.5000000077506567  0.8333325833952303  0.4999995452435709
  0.8333902758696770  0.8333330404857531  0.4999374245279464
 -0.0000000007784555  0.1666643399927589  0.2499738127749021
  0.3333520036601815  0.1666571998377518  0.2500098452392492
  0.6666479926695356  0.1666571962106712  0.2500098419622037
  0.0000000018190500  0.5000014775101116  0.2499735288922653
  0.3333529195555803  0.5000100992703591  0.2500096489720859
  0.6666470816199754  0.5000100967094468  0.2500096469184727
  0.0000000048161814  0.8333343897537692  0.2498215423803772
  0.3333317312983187  0.8333337237193854  0.2500088018722706
  0.6666682740529546  0.8333337279740173  0.2500087912444983
  0.1666754596415925 -0.0000187244419125  0.7499898615671715
  0.5000000023402232  0.0000009440894445  0.7499905863911472
  0.8333245354513519 -0.0000187274847088  0.7499898625626477
  0.1666680272010983  0.3333334862876921  0.7500265723397144
  0.4999999973331575  0.3333335684293671  0.7501783799396845
  0.8333319711981583  0.3333334831585035  0.7500265694493864
  0.1666762181045984  0.6666853314758898  0.7499904585709919
  0.4999999978393217  0.6666635243268716  0.7499915737474488
  0.8333237814503575  0.6666853305340672  0.7499904533130848
  0.0000000038118272 -0.0000100176612633  0.2066763040547412
  0.3333648274963476  0.0000006009179975  0.2068003229182271
  0.6666351721127808  0.0000006008516382  0.2068003188190161
  0.0000000003843155  0.3333321600609255  0.2067742315236470
  0.3332695173712487  0.3333329689164335  0.2068057641529724
  0.6667304837033640  0.3333329723652239  0.2068057597878605
  0.0000000056283041  0.6666782213576604  0.2066752642324645
  0.3333663802048193  0.6666672801059412  0.2067973280368780
  0.6666336171141904  0.6666672765549421  0.2067973235591704
  0.1667096309086042  0.1666631776089629  0.7067915302758594
  0.4999999970114625  0.1666658411011045  0.7068362831370295
  0.8332903682543300  0.1666631788072163  0.7067915295386792
  0.1667114032319227  0.5000041525500453  0.7067946793668123
  0.4999999945825543  0.5000006308484599  0.7068386330734857
  0.8332885947044431  0.5000041508335620  0.7067946756036319
  0.1666216875155089  0.8333327315703921  0.7067358356924424
  0.5000000014900060  0.8333315466889507  0.7067780579417080
  0.8333783118391334  0.8333327291615574  0.7067358262662216
  0.0000000000139505  0.1667616971153025  0.4567270095844306
  0.3333234325922284  0.1667976130802600  0.4568007246964233
  0.6666765680280085  0.1667976145327656  0.4568007235064255
 -0.0000000013914250  0.4999126022571863  0.4567260828089841
  0.3333228179924745  0.4998764471299008  0.4568015439587625
  0.6666771826589324  0.4998764465210642  0.4568015409107660
  0.0000000039611230  0.8333262898072907  0.4565611426785707
  0.3332998160843261  0.8333257380790439  0.4568398817419273
  0.6667001918495736  0.8333257392880160  0.4568398700202372
  0.1666986231130518  0.0000172653264077  0.9567647875746973
  0.4999999962224391 -0.0000092680346479  0.9567522062698001
  0.8333013802747435  0.0000172636090955  0.9567647863361494
  0.1666419647462593  0.3333280040104773  0.9568218085201297
  0.4999999989953890  0.3333261710861751  0.9569513036267905
  0.8333580333926436  0.3333280037802087  0.9568218029827327
  0.1666979785828359  0.6666551156222000  0.9567643563271379
  0.4999999996909341  0.6666834927239590  0.9567535590610196
  0.8333020192024404  0.6666551155569697  0.9567643543975717
  0.1665481574878016  0.0000089518109464  0.5431963339750606
  0.5000000063402493  0.0000314011354579  0.5431570417482936
  0.8334518435505917  0.0000089511358085  0.5431963253876783
  0.1665839066957987  0.3333328321092831  0.5432762117897322
  0.5000000010975788  0.3333314486516369  0.5434399489788075
  0.8334160937069524  0.3333328322289840  0.5432762069379244
  0.1665452704643332  0.6666580211095460  0.5431999149217890
  0.5000000035944321  0.6666341022960331  0.5431598427648070
  0.8334547305151602  0.6666580176237408  0.5431999034526984
 -0.0000000002496777  0.1666933740120697  0.0431775694906378
  0.3333105306146552  0.1666368447271535  0.0432360621976995
  0.6666894636867660  0.1666368501545910  0.0432360589464538
  0.0000000004783051  0.4999749443034681  0.0431761313716552
  0.3333091502772524  0.5000308683668077  0.0432330986459838
  0.6666908454066647  0.5000308684467151  0.0432330956389998
  0.0000000025524093  0.8333322816783008  0.0430504503443612
  0.3333375016309701  0.8333330425578830  0.0432495486829844
  0.6666624930818961  0.8333330391976699  0.0432495409490860
  0.1666713489846073  0.1666348282739089  0.2932085227600230
  0.4999999973673932  0.1667240414855275  0.2932608883909664
  0.8333286516583565  0.1666348255205982  0.2932085216617621
  0.1666720557678791  0.5000373624527492  0.2932075712951606
  0.4999999995221888  0.4999494407829014  0.2932617812873479
  0.8333279446711411  0.5000373647259960  0.2932075681410383
  0.1666688498943654  0.8333282222054480  0.2931633553526555
  0.4999999999004290  0.8333265740101371  0.2932201531908077
  0.8333311584998903  0.8333282186022388  0.2931633434431460
  0.0000000014994570  0.0000581368302223  0.7931920713941063
  0.3333318568424206  0.9999619121454578  0.7932014356614170
  0.6666681395990754  0.9999619140693943  0.7932014350780953
 -0.0000000022586342  0.3333264111985032  0.7932239671470205
  0.3333429246468101  0.3333276616022021  0.7933260830029324
  0.6666570740758315  0.3333276638069605  0.7933260776002912
 -0.0000000027863904  0.6666154889576723  0.7931919584509356
  0.3333324458712861  0.6667107416992121  0.7932027440285905
  0.6666675534981061  0.6667107406271082  0.7932027414705742
 
  0.00000000E+00  0.00000000E+00  0.00000000E+00
  0.00000000E+00  0.00000000E+00  0.00000000E+00
  0.00000000E+00  0.00000000E+00  0.00000000E+00
  0.00000000E+00  0.00000000E+00  0.00000000E+00
  0.00000000E+00  0.00000000E+00  0.00000000E+00
  0.00000000E+00  0.00000000E+00  0.00000000E+00
  0.00000000E+00  0.00000000E+00  0.00000000E+00
  0.00000000E+00  0.00000000E+00  0.00000000E+00
  0.00000000E+00  0.00000000E+00  0.00000000E+00
  0.00000000E+00  0.00000000E+00  0.00000000E+00
  0.00000000E+00  0.00000000E+00  0.00000000E+00
  0.00000000E+00  0.00000000E+00  0.00000000E+00
  0.00000000E+00  0.00000000E+00  0.00000000E+00
  0.00000000E+00  0.00000000E+00  0.00000000E+00
  0.00000000E+00  0.00000000E+00  0.00000000E+00
  0.00000000E+00  0.00000000E+00  0.00000000E+00
  0.00000000E+00  0.00000000E+00  0.00000000E+00
  0.00000000E+00  0.00000000E+00  0.00000000E+00
  0.00000000E+00  0.00000000E+00  0.00000000E+00
  0.00000000E+00  0.00000000E+00  0.00000000E+00
  0.00000000E+00  0.00000000E+00  0.00000000E+00
  0.00000000E+00  0.00000000E+00  0.00000000E+00
  0.00000000E+00  0.00000000E+00  0.00000000E+00
  0.00000000E+00  0.00000000E+00  0.00000000E+00
  0.00000000E+00  0.00000000E+00  0.00000000E+00
  0.00000000E+00  0.00000000E+00  0.00000000E+00
  0.00000000E+00  0.00000000E+00  0.00000000E+00
  0.00000000E+00  0.00000000E+00  0.00000000E+00
  0.00000000E+00  0.00000000E+00  0.00000000E+00
  0.00000000E+00  0.00000000E+00  0.00000000E+00
  0.00000000E+00  0.00000000E+00  0.00000000E+00
  0.00000000E+00  0.00000000E+00  0.00000000E+00
  0.00000000E+00  0.00000000E+00  0.00000000E+00
  0.00000000E+00  0.00000000E+00  0.00000000E+00
  0.00000000E+00  0.00000000E+00  0.00000000E+00
  0.00000000E+00  0.00000000E+00  0.00000000E+00
  0.00000000E+00  0.00000000E+00  0.00000000E+00
  0.00000000E+00  0.00000000E+00  0.00000000E+00
  0.00000000E+00  0.00000000E+00  0.00000000E+00
  0.00000000E+00  0.00000000E+00  0.00000000E+00
  0.00000000E+00  0.00000000E+00  0.00000000E+00
  0.00000000E+00  0.00000000E+00  0.00000000E+00
  0.00000000E+00  0.00000000E+00  0.00000000E+00
  0.00000000E+00  0.00000000E+00  0.00000000E+00
  0.00000000E+00  0.00000000E+00  0.00000000E+00
  0.00000000E+00  0.00000000E+00  0.00000000E+00
  0.00000000E+00  0.00000000E+00  0.00000000E+00
  0.00000000E+00  0.00000000E+00  0.00000000E+00
  0.00000000E+00  0.00000000E+00  0.00000000E+00
  0.00000000E+00  0.00000000E+00  0.00000000E+00
  0.00000000E+00  0.00000000E+00  0.00000000E+00
  0.00000000E+00  0.00000000E+00  0.00000000E+00
  0.00000000E+00  0.00000000E+00  0.00000000E+00
  0.00000000E+00  0.00000000E+00  0.00000000E+00
  0.00000000E+00  0.00000000E+00  0.00000000E+00
  0.00000000E+00  0.00000000E+00  0.00000000E+00
  0.00000000E+00  0.00000000E+00  0.00000000E+00
  0.00000000E+00  0.00000000E+00  0.00000000E+00
  0.00000000E+00  0.00000000E+00  0.00000000E+00
  0.00000000E+00  0.00000000E+00  0.00000000E+00
  0.00000000E+00  0.00000000E+00  0.00000000E+00
  0.00000000E+00  0.00000000E+00  0.00000000E+00
  0.00000000E+00  0.00000000E+00  0.00000000E+00
  0.00000000E+00  0.00000000E+00  0.00000000E+00
  0.00000000E+00  0.00000000E+00  0.00000000E+00
  0.00000000E+00  0.00000000E+00  0.00000000E+00
  0.00000000E+00  0.00000000E+00  0.00000000E+00
  0.00000000E+00  0.00000000E+00  0.00000000E+00
  0.00000000E+00  0.00000000E+00  0.00000000E+00
  0.00000000E+00  0.00000000E+00  0.00000000E+00
  0.00000000E+00  0.00000000E+00  0.00000000E+00
  0.00000000E+00  0.00000000E+00  0.00000000E+00
  0.00000000E+00  0.00000000E+00  0.00000000E+00
  0.00000000E+00  0.00000000E+00  0.00000000E+00
  0.00000000E+00  0.00000000E+00  0.00000000E+00
  0.00000000E+00  0.00000000E+00  0.00000000E+00
  0.00000000E+00  0.00000000E+00  0.00000000E+00
  0.00000000E+00  0.00000000E+00  0.00000000E+00
  0.00000000E+00  0.00000000E+00  0.00000000E+00
  0.00000000E+00  0.00000000E+00  0.00000000E+00
  0.00000000E+00  0.00000000E+00  0.00000000E+00
  0.00000000E+00  0.00000000E+00  0.00000000E+00
  0.00000000E+00  0.00000000E+00  0.00000000E+00
  0.00000000E+00  0.00000000E+00  0.00000000E+00
  0.00000000E+00  0.00000000E+00  0.00000000E+00
  0.00000000E+00  0.00000000E+00  0.00000000E+00
  0.00000000E+00  0.00000000E+00  0.00000000E+00
  0.00000000E+00  0.00000000E+00  0.00000000E+00
  0.00000000E+00  0.00000000E+00  0.00000000E+00
  0.00000000E+00  0.00000000E+00  0.00000000E+00
  0.00000000E+00  0.00000000E+00  0.00000000E+00
  0.00000000E+00  0.00000000E+00  0.00000000E+00
  0.00000000E+00  0.00000000E+00  0.00000000E+00
  0.00000000E+00  0.00000000E+00  0.00000000E+00
  0.00000000E+00  0.00000000E+00  0.00000000E+00
  0.00000000E+00  0.00000000E+00  0.00000000E+00
  0.00000000E+00  0.00000000E+00  0.00000000E+00
  0.00000000E+00  0.00000000E+00  0.00000000E+00
  0.00000000E+00  0.00000000E+00  0.00000000E+00
  0.00000000E+00  0.00000000E+00  0.00000000E+00
  0.00000000E+00  0.00000000E+00  0.00000000E+00
  0.00000000E+00  0.00000000E+00  0.00000000E+00
  0.00000000E+00  0.00000000E+00  0.00000000E+00
  0.00000000E+00  0.00000000E+00  0.00000000E+00
  0.00000000E+00  0.00000000E+00  0.00000000E+00
  0.00000000E+00  0.00000000E+00  0.00000000E+00
  0.00000000E+00  0.00000000E+00  0.00000000E+00
  0.00000000E+00  0.00000000E+00  0.00000000E+00
