generated by phonopy                    
   1.00000000000000     
    11.4081287385000003    0.0000000000000000    0.0000000000000000
     0.0000000000000000   11.4081287385000003    0.0000000000000000
     0.0000000000000000    0.0000000000000000    9.7477521895999999
   Ti   O 
    36    72
Direct
  0.0000000019223286  0.0000571199033853 -0.0000463516144925
  0.3333969759612008 -0.0000623727730605 -0.0000003444721133
  0.6666030213379582 -0.0000623735062338 -0.0000003425591097
  0.0000000005672876  0.3333346810702888  0.0000002937178979
  0.3332765590756237  0.3333337801538672  0.0000464407110642
  0.6667234350034127  0.3333337797794345  0.0000464436176748
 -0.0000000017443789  0.6666088564677112 -0.0000461209058962
  0.3333960215094481  0.6667292122878696  0.0000002023396396
  0.6666039789664803  0.6667292057712250  0.0000002019525803
  0.1666585897364025  0.1666742113849582  0.5000001224909845
  0.4999999974943934  0.1669770037517252  0.4999126962237350
  0.8333414138829975  0.1666742113670453  0.5000001272361968
  0.1666577474101415  0.4999923420670616  0.4999997979961427
  0.5000000008326096  0.4996839195294684  0.4999123648711974
  0.8333422528225410  0.4999923436324641  0.4999997974223124
  0.1663529027514781  0.8333331514829958  0.5000873124491829
  0.5000000039222450  0.8333310131945250  0.5000003607795048
  0.8336470973998741  0.8333331478837053  0.5000873020233610
  0.0000000008946687  0.1666703554925245  0.2499720932592193
  0.3333126546205090  0.1666594214994228  0.2499459173678573
  0.6666873457340923  0.1666594246734592  0.2499459178461436
  0.0000000005616903  0.4999956606521705  0.2499722813092152
  0.3333135096225747  0.5000079614663148  0.2499461554251936
  0.6666864950130177  0.5000079624410688  0.2499461538859004
  0.0000000030982352  0.8333345478185142  0.2495809992721525
  0.3327253348334090  0.8333342314634381  0.2501719744061714
  0.6672746697229337  0.8333342294464278  0.2501719527997383
  0.1666729630911830  0.0000209852115514  0.7500542383953843
  0.4999999964223408  0.0006090555301788  0.7498274589319849
  0.8333270368461491  0.0000209795411565  0.7500542342702120
  0.1666617874748180  0.3333338408019838  0.7500276573500699
  0.4999999977892948  0.3333354688839798  0.7504184269623272
  0.8333382093983700  0.3333338416049806  0.7500276608085060
  0.1666738689886584  0.6666457472452372  0.7500543636338113
  0.5000000009887166  0.6660586211738517  0.7498285474918456
  0.8333261284801312  0.6666457444057107  0.7500543668677753
  0.0000000019808023  0.0000828725578947  0.2066337385995138
  0.3333470159314463 -0.0000079607054912  0.2067448790381197
  0.6666529836463213 -0.0000079571092845  0.2067448795743130
 -0.0000000014730013  0.3333320118302215  0.2067287988178981
  0.3333046017056281  0.3333326906975808  0.2067338427253020
  0.6666953982401218  0.3333326882534329  0.2067338414175991
  0.0000000036248722  0.6665853796011616  0.2066337796585775
  0.3333486560892762  0.6666762975734283  0.2067432573247317
  0.6666513430323674  0.6666762963931872  0.2067432558900186
  0.1666802580638911  0.1666984206014903  0.7067971904753343
  0.4999999998789272  0.1669936337146176  0.7074138530709404
  0.8333197383635063  0.1666984197164829  0.7067971922146731
  0.1666819171579231  0.4999694908458533  0.7067987207155281
  0.5000000023822900  0.4996742455875914  0.7074165352237954
  0.8333180788481305  0.4999694870313365  0.7067987209377981
  0.1666228901785513  0.8333325979323872  0.7068205167148526
  0.5000000022511154  0.8333313212399658  0.7060516796525224
  0.8333771093657082  0.8333325974521657  0.7068205115245200
 -0.0000000005511335  0.1667611899362781  0.4567207235392754
  0.3332378187555106  0.1669356600868603  0.4566565598631624
  0.6667621827863454  0.1669356557268282  0.4566565541547895
  0.0000000013872132  0.4999125793309563  0.4567201747377392
  0.3332370787494903  0.4997369613951678  0.4566571209489304
  0.6667629213791084  0.4997369620748116  0.4566571222935977
 -0.0000000012596768  0.8333268855844439  0.4564374761678289
  0.3319303610401231  0.8333260099666139  0.4561236558673583
  0.6680696449769071  0.8333260065996750  0.4561236346535103
  0.1666831206369598  0.0000109076656003  0.9568109464847444
  0.4999999999030911 -0.0000102236663014  0.9568798140424374
  0.8333168771022651  0.0000109075208773  0.9568109441872961
  0.1666144256571133  0.3333286174210942  0.9568324191401197
  0.4999999992583006  0.3333268568177443  0.9570151231186853
  0.8333855701305405  0.3333286179390426  0.9568324162212712
  0.1666824976678082  0.6666610575524599  0.9568103130363486
  0.4999999975407018  0.6666843056056675  0.9568807386455447
  0.8333175027351060  0.6666610570681576  0.9568103112734433
  0.1664091510835322  0.0000942052261930  0.5433421088998602
  0.5000000004501917  0.0013983594158167  0.5438751506911698
  0.8335908530402619  0.0000942046505150  0.5433421033558522
  0.1665835761419611  0.3333325981166430  0.5432808851473738
  0.5000000031941021  0.3333307324263444  0.5435629461920637
  0.8334164218672585  0.3333325959510774  0.5432808809157120
  0.1664067815222454  0.6665729050860763  0.5433442862725947
  0.5000000028428594  0.6652612333715487  0.5438768631248105
  0.8335932203396035  0.6665729038587055  0.5433442754542701
 -0.0000000027592183  0.1667214285256947  0.0431667275549513
  0.3333176498360525  0.1666528126873478  0.0431899676434889
  0.6666823475880885  0.1666528118800471  0.0431899647286659
 -0.0000000003549614  0.4999470939718236  0.0431665859873718
  0.3333160801403787  0.5000152396588281  0.0431885596824266
  0.6666839159071830  0.5000152342560575  0.0431885622019213
  0.0000000008342902  0.8333320186587654  0.0429850007995970
  0.3333391253996136  0.8333327715606997  0.0431208303269926
  0.6666608730064616  0.8333327736206457  0.0431208243407028
  0.1666367994892420  0.1666630757759111  0.2932028485145244
  0.5000000003885795  0.1667219871350718  0.2931782901822058
  0.8333632006812034  0.1666630706730945  0.2932028531441020
  0.1666373553322127  0.5000089172263515  0.2932017148115290
  0.5000000018884377  0.4999511988029867  0.2931783480695691
  0.8333626455446392  0.5000089187233498  0.2932017163652366
  0.1663414386914211  0.8333288825098570  0.2925838670248617
  0.5000000009998949  0.8333270161521897  0.2939478673468485
  0.8336585660336657  0.8333288790362350  0.2925838468771503
 -0.0000000034545404  0.0000240334052909  0.7932651209674005
  0.3333403447069976 -0.0000196863502357  0.7932555463324682
  0.6666596563711651 -0.0000196861449631  0.7932555523380879
 -0.0000000028326076  0.3333270139398242  0.7932708618994103
  0.3332495967965196  0.3333284063195488  0.7933672560779473
  0.6667504006332128  0.3333284063855068  0.7933672511425650
  0.0000000018213579  0.6666495482086370  0.7932649087423407
  0.3333407430534736  0.6666921172366155  0.7932569668103924
  0.6666592541787326  0.6666921174014936  0.7932569655180003
 
  0.00000000E+00  0.00000000E+00  0.00000000E+00
  0.00000000E+00  0.00000000E+00  0.00000000E+00
  0.00000000E+00  0.00000000E+00  0.00000000E+00
  0.00000000E+00  0.00000000E+00  0.00000000E+00
  0.00000000E+00  0.00000000E+00  0.00000000E+00
  0.00000000E+00  0.00000000E+00  0.00000000E+00
  0.00000000E+00  0.00000000E+00  0.00000000E+00
  0.00000000E+00  0.00000000E+00  0.00000000E+00
  0.00000000E+00  0.00000000E+00  0.00000000E+00
  0.00000000E+00  0.00000000E+00  0.00000000E+00
  0.00000000E+00  0.00000000E+00  0.00000000E+00
  0.00000000E+00  0.00000000E+00  0.00000000E+00
  0.00000000E+00  0.00000000E+00  0.00000000E+00
  0.00000000E+00  0.00000000E+00  0.00000000E+00
  0.00000000E+00  0.00000000E+00  0.00000000E+00
  0.00000000E+00  0.00000000E+00  0.00000000E+00
  0.00000000E+00  0.00000000E+00  0.00000000E+00
  0.00000000E+00  0.00000000E+00  0.00000000E+00
  0.00000000E+00  0.00000000E+00  0.00000000E+00
  0.00000000E+00  0.00000000E+00  0.00000000E+00
  0.00000000E+00  0.00000000E+00  0.00000000E+00
  0.00000000E+00  0.00000000E+00  0.00000000E+00
  0.00000000E+00  0.00000000E+00  0.00000000E+00
  0.00000000E+00  0.00000000E+00  0.00000000E+00
  0.00000000E+00  0.00000000E+00  0.00000000E+00
  0.00000000E+00  0.00000000E+00  0.00000000E+00
  0.00000000E+00  0.00000000E+00  0.00000000E+00
  0.00000000E+00  0.00000000E+00  0.00000000E+00
  0.00000000E+00  0.00000000E+00  0.00000000E+00
  0.00000000E+00  0.00000000E+00  0.00000000E+00
  0.00000000E+00  0.00000000E+00  0.00000000E+00
  0.00000000E+00  0.00000000E+00  0.00000000E+00
  0.00000000E+00  0.00000000E+00  0.00000000E+00
  0.00000000E+00  0.00000000E+00  0.00000000E+00
  0.00000000E+00  0.00000000E+00  0.00000000E+00
  0.00000000E+00  0.00000000E+00  0.00000000E+00
  0.00000000E+00  0.00000000E+00  0.00000000E+00
  0.00000000E+00  0.00000000E+00  0.00000000E+00
  0.00000000E+00  0.00000000E+00  0.00000000E+00
  0.00000000E+00  0.00000000E+00  0.00000000E+00
  0.00000000E+00  0.00000000E+00  0.00000000E+00
  0.00000000E+00  0.00000000E+00  0.00000000E+00
  0.00000000E+00  0.00000000E+00  0.00000000E+00
  0.00000000E+00  0.00000000E+00  0.00000000E+00
  0.00000000E+00  0.00000000E+00  0.00000000E+00
  0.00000000E+00  0.00000000E+00  0.00000000E+00
  0.00000000E+00  0.00000000E+00  0.00000000E+00
  0.00000000E+00  0.00000000E+00  0.00000000E+00
  0.00000000E+00  0.00000000E+00  0.00000000E+00
  0.00000000E+00  0.00000000E+00  0.00000000E+00
  0.00000000E+00  0.00000000E+00  0.00000000E+00
  0.00000000E+00  0.00000000E+00  0.00000000E+00
  0.00000000E+00  0.00000000E+00  0.00000000E+00
  0.00000000E+00  0.00000000E+00  0.00000000E+00
  0.00000000E+00  0.00000000E+00  0.00000000E+00
  0.00000000E+00  0.00000000E+00  0.00000000E+00
  0.00000000E+00  0.00000000E+00  0.00000000E+00
  0.00000000E+00  0.00000000E+00  0.00000000E+00
  0.00000000E+00  0.00000000E+00  0.00000000E+00
  0.00000000E+00  0.00000000E+00  0.00000000E+00
  0.00000000E+00  0.00000000E+00  0.00000000E+00
  0.00000000E+00  0.00000000E+00  0.00000000E+00
  0.00000000E+00  0.00000000E+00  0.00000000E+00
  0.00000000E+00  0.00000000E+00  0.00000000E+00
  0.00000000E+00  0.00000000E+00  0.00000000E+00
  0.00000000E+00  0.00000000E+00  0.00000000E+00
  0.00000000E+00  0.00000000E+00  0.00000000E+00
  0.00000000E+00  0.00000000E+00  0.00000000E+00
  0.00000000E+00  0.00000000E+00  0.00000000E+00
  0.00000000E+00  0.00000000E+00  0.00000000E+00
  0.00000000E+00  0.00000000E+00  0.00000000E+00
  0.00000000E+00  0.00000000E+00  0.00000000E+00
  0.00000000E+00  0.00000000E+00  0.00000000E+00
  0.00000000E+00  0.00000000E+00  0.00000000E+00
  0.00000000E+00  0.00000000E+00  0.00000000E+00
  0.00000000E+00  0.00000000E+00  0.00000000E+00
  0.00000000E+00  0.00000000E+00  0.00000000E+00
  0.00000000E+00  0.00000000E+00  0.00000000E+00
  0.00000000E+00  0.00000000E+00  0.00000000E+00
  0.00000000E+00  0.00000000E+00  0.00000000E+00
  0.00000000E+00  0.00000000E+00  0.00000000E+00
  0.00000000E+00  0.00000000E+00  0.00000000E+00
  0.00000000E+00  0.00000000E+00  0.00000000E+00
  0.00000000E+00  0.00000000E+00  0.00000000E+00
  0.00000000E+00  0.00000000E+00  0.00000000E+00
  0.00000000E+00  0.00000000E+00  0.00000000E+00
  0.00000000E+00  0.00000000E+00  0.00000000E+00
  0.00000000E+00  0.00000000E+00  0.00000000E+00
  0.00000000E+00  0.00000000E+00  0.00000000E+00
  0.00000000E+00  0.00000000E+00  0.00000000E+00
  0.00000000E+00  0.00000000E+00  0.00000000E+00
  0.00000000E+00  0.00000000E+00  0.00000000E+00
  0.00000000E+00  0.00000000E+00  0.00000000E+00
  0.00000000E+00  0.00000000E+00  0.00000000E+00
  0.00000000E+00  0.00000000E+00  0.00000000E+00
  0.00000000E+00  0.00000000E+00  0.00000000E+00
  0.00000000E+00  0.00000000E+00  0.00000000E+00
  0.00000000E+00  0.00000000E+00  0.00000000E+00
  0.00000000E+00  0.00000000E+00  0.00000000E+00
  0.00000000E+00  0.00000000E+00  0.00000000E+00
  0.00000000E+00  0.00000000E+00  0.00000000E+00
  0.00000000E+00  0.00000000E+00  0.00000000E+00
  0.00000000E+00  0.00000000E+00  0.00000000E+00
  0.00000000E+00  0.00000000E+00  0.00000000E+00
  0.00000000E+00  0.00000000E+00  0.00000000E+00
  0.00000000E+00  0.00000000E+00  0.00000000E+00
  0.00000000E+00  0.00000000E+00  0.00000000E+00
  0.00000000E+00  0.00000000E+00  0.00000000E+00
