generated by phonopy                    
   1.00000000000000     
    11.4081287385000003    0.0000000000000000    0.0000000000000000
     0.0000000000000000   11.4081287385000003    0.0000000000000000
     0.0000000000000000    0.0000000000000000    9.7477521895999999
   Ti   O 
    36    72
Direct
 -0.0000000018427734  0.0000023039026773 -0.0000757618536088
  0.3333117996444534  0.0000223149742265  0.0000001390487144
  0.6666882043583456  0.0000223029450179  0.0000001241911324
  0.0000000052299687  0.3333346727377204  0.0000000114924266
  0.3333314028482786  0.3333335833976713  0.0000761770562854
  0.6666686002268234  0.3333335843161739  0.0000761742861750
 -0.0000000011468003  0.6666643423919751 -0.0000760232794144
  0.3333109477238690  0.6666442885459565 -0.0000001826310416
  0.6666890557379692  0.6666442901714982 -0.0000001903789531
  0.1666588584524944  0.1666749451944853  0.5000002822628130
  0.4999999985824329  0.1666468547694929  0.5001049520761115
  0.8333411378471228  0.1666749398314072  0.5000002798945575
  0.1666578762677694  0.4999923873488127  0.5000005870061420
  0.4999999996977398  0.5000189477956942  0.5001053995420965
  0.8333421227951706  0.4999923892580121  0.5000005817559463
  0.1666857517905868  0.8333336117904645  0.4998944553188079
  0.4999999952692138  0.8333342828148933  0.4999987664264886
  0.8333142304210915  0.8333336079260575  0.4998944541377545
  0.0000000028358533  0.1666580168460651  0.2500185648112506
  0.3333435491581519  0.1666609414052224  0.2500949828026705
  0.6666564486371329  0.1666609302903679  0.2500949711719283
 -0.0000000011917445  0.5000085682269669  0.2500182685820129
  0.3333444347001085  0.5000061768572427  0.2500950524065588
  0.6666555641442554  0.5000061786881131  0.2500950458554233
  0.9999999890560035  0.8333344924337734  0.2499256928629585
  0.3333319697491238  0.8333335436648129  0.2499592103923330
  0.6666680170124112  0.8333335329690774  0.2499591985275988
  0.1666717706707614 -0.0000106546248084  0.7499045698756093
  0.5000000032396176  0.0000000175147155  0.7500401041013024
  0.8333282393087701 -0.0000106608705493  0.7499045634917340
  0.1666748106660789  0.3333333187358999  0.7499823107611039
  0.5000000021541867  0.3333335436851751  0.7500751101678279
  0.8333252006120013  0.3333333193288983  0.7499823031671464
  0.1666725566670883  0.6666769702982652  0.7499049214452398
  0.5000000010487424  0.6666641187524666  0.7500403358495596
  0.8333274451599769  0.6666769749952580  0.7499049204254662
  0.9999999980494828  0.0000181810000198  0.2067389917507134
  0.3332466371669393 -0.0000031281079243  0.2067792208720049
  0.6667533507798525 -0.0000031284850598  0.2067792065837920
 -0.0000000017214649  0.3333326579280365  0.2067901491969085
  0.3334641681405726  0.3333329518798892  0.2068977260372065
  0.6665358379877093  0.3333329456419130  0.2068977217808990
  0.9999999983929734  0.6666504535251141  0.2067369920536044
  0.3332485003704837  0.6666705712231630  0.2067761474123465
  0.6667514837871962  0.6666705649548398  0.2067761331826092
  0.1666127551714991  0.1666666480064272  0.7067491914113604
  0.5000000074449729  0.1666667569025730  0.7068981775317518
  0.8333872549157535  0.1666666504570609  0.7067491818089060
  0.1666135187321787  0.5000004585603807  0.7067524387814835
  0.4999999968584187  0.4999999092697445  0.7068996035311866
  0.8333864955503706  0.5000004557736071  0.7067524319770316
  0.1668587196946721  0.8333326293840099  0.7066698487390822
  0.4999999995152705  0.8333312706788406  0.7068488721270072
  0.8331412827063109  0.8333326257571979  0.7066698502307251
 -0.0000000056826131  0.1666533510760016  0.4567892204260831
  0.3333417369568209  0.1666525247289598  0.4568708801159399
  0.6666582623235215  0.1666525237316747  0.4568708712541308
 -0.0000000033794876  0.5000211406264314  0.4567885187439861
  0.3333411031199845  0.5000203410215233  0.4568717085645084
  0.6666588952128476  0.5000203431170449  0.4568717049939521
  0.9999999945206862  0.8333264349928096  0.4566982782252385
  0.3333592961692749  0.8333281416863295  0.4567259621969829
  0.6666406880174660  0.8333281302168970  0.4567259575001568
  0.1666349995006284  0.0000632336343548  0.9566799864108869
  0.4999999997724414  0.0000275506707680  0.9568215319069571
  0.8333650080093911  0.0000632302261669  0.9566799775628875
  0.1666590424922880  0.3333277955594909  0.9567577631601705
  0.5000000109931160  0.3333258537999753  0.9568483137973616
  0.8333409620656639  0.3333277999313376  0.9567577533592974
  0.1666343704171933  0.6666087937533050  0.9566788057564609
  0.4999999980879129  0.6666459355751347  0.9568219957270790
  0.8333656340885844  0.6666087854229171  0.9566787954893945
  0.1666946343137826 -0.0000086337928084  0.5431259400187955
  0.4999999999790555 -0.0000263374907912  0.5432707484044585
  0.8333053571112112 -0.0000086329608841  0.5431259345488271
  0.1666937110976620  0.3333329920091531  0.5432148621931601
  0.5000000021427228  0.3333319755581244  0.5433046858639151
  0.8333062903138263  0.3333329896875671  0.5432148543941016
  0.1666933658770655  0.6666763677058078  0.5431289162966686
  0.4999999934169445  0.6666941666133577  0.5432720595206785
  0.8333066302077144  0.6666763625731537  0.5431289125181503
  0.9999999978076298  0.1666762995742021  0.0432418524977895
  0.3332635237733974  0.1667000179259321  0.0433206547629571
  0.6667364889579644  0.1667000206996258  0.0433206413497538
  0.0000000037893944  0.4999921599087191  0.0432400286852566
  0.3332621944892808  0.4999674723928716  0.0433175884440644
  0.6667378128121424  0.4999674606767838  0.0433175773490722
  0.0000000002163340  0.8333325694077292  0.0431548441428905
  0.3332978723857810  0.8333327111308443  0.0431808469414154
  0.6667021346096066  0.8333327090916107  0.0431808345347314
  0.1666676033657202  0.1667333820501170  0.2932514077517868
  0.5000000034914655  0.1664877558738346  0.2933262306276250
  0.8333323895334840  0.1667333755074619  0.2932514030248264
  0.1666681817707434  0.4999410811821364  0.2932505521821556
  0.5000000010616307  0.5001837908136727  0.2933271096935152
  0.8333318119946511  0.4999410810457462  0.2932505500479216
  0.1666673767706616  0.8333273842469218  0.2931025460606895
  0.4999999903090495  0.8333257359217073  0.2931464570878068
  0.8333326092849588  0.8333273827088333  0.2931025430889269
  0.0000000098914443 -0.0001365177776209  0.7930998492136058
  0.3333354782308571  0.0000761969104218  0.7932229820963187
  0.6666645268407477  0.0000761864129389  0.7932229745471365
  0.0000000009330458  0.3333257068597399  0.7932078506210943
  0.3333151009394787  0.3333271844455867  0.7932643354000625
  0.6666849127411036  0.3333271897091783  0.7932643275023584
  0.0000000055247700  0.6668117425379453  0.7930992752260422
  0.3333360600899689  0.6665921535488988  0.7932239132586146
  0.6666639401635293  0.6665921538613195  0.7932238988525470
 
  0.00000000E+00  0.00000000E+00  0.00000000E+00
  0.00000000E+00  0.00000000E+00  0.00000000E+00
  0.00000000E+00  0.00000000E+00  0.00000000E+00
  0.00000000E+00  0.00000000E+00  0.00000000E+00
  0.00000000E+00  0.00000000E+00  0.00000000E+00
  0.00000000E+00  0.00000000E+00  0.00000000E+00
  0.00000000E+00  0.00000000E+00  0.00000000E+00
  0.00000000E+00  0.00000000E+00  0.00000000E+00
  0.00000000E+00  0.00000000E+00  0.00000000E+00
  0.00000000E+00  0.00000000E+00  0.00000000E+00
  0.00000000E+00  0.00000000E+00  0.00000000E+00
  0.00000000E+00  0.00000000E+00  0.00000000E+00
  0.00000000E+00  0.00000000E+00  0.00000000E+00
  0.00000000E+00  0.00000000E+00  0.00000000E+00
  0.00000000E+00  0.00000000E+00  0.00000000E+00
  0.00000000E+00  0.00000000E+00  0.00000000E+00
  0.00000000E+00  0.00000000E+00  0.00000000E+00
  0.00000000E+00  0.00000000E+00  0.00000000E+00
  0.00000000E+00  0.00000000E+00  0.00000000E+00
  0.00000000E+00  0.00000000E+00  0.00000000E+00
  0.00000000E+00  0.00000000E+00  0.00000000E+00
  0.00000000E+00  0.00000000E+00  0.00000000E+00
  0.00000000E+00  0.00000000E+00  0.00000000E+00
  0.00000000E+00  0.00000000E+00  0.00000000E+00
  0.00000000E+00  0.00000000E+00  0.00000000E+00
  0.00000000E+00  0.00000000E+00  0.00000000E+00
  0.00000000E+00  0.00000000E+00  0.00000000E+00
  0.00000000E+00  0.00000000E+00  0.00000000E+00
  0.00000000E+00  0.00000000E+00  0.00000000E+00
  0.00000000E+00  0.00000000E+00  0.00000000E+00
  0.00000000E+00  0.00000000E+00  0.00000000E+00
  0.00000000E+00  0.00000000E+00  0.00000000E+00
  0.00000000E+00  0.00000000E+00  0.00000000E+00
  0.00000000E+00  0.00000000E+00  0.00000000E+00
  0.00000000E+00  0.00000000E+00  0.00000000E+00
  0.00000000E+00  0.00000000E+00  0.00000000E+00
  0.00000000E+00  0.00000000E+00  0.00000000E+00
  0.00000000E+00  0.00000000E+00  0.00000000E+00
  0.00000000E+00  0.00000000E+00  0.00000000E+00
  0.00000000E+00  0.00000000E+00  0.00000000E+00
  0.00000000E+00  0.00000000E+00  0.00000000E+00
  0.00000000E+00  0.00000000E+00  0.00000000E+00
  0.00000000E+00  0.00000000E+00  0.00000000E+00
  0.00000000E+00  0.00000000E+00  0.00000000E+00
  0.00000000E+00  0.00000000E+00  0.00000000E+00
  0.00000000E+00  0.00000000E+00  0.00000000E+00
  0.00000000E+00  0.00000000E+00  0.00000000E+00
  0.00000000E+00  0.00000000E+00  0.00000000E+00
  0.00000000E+00  0.00000000E+00  0.00000000E+00
  0.00000000E+00  0.00000000E+00  0.00000000E+00
  0.00000000E+00  0.00000000E+00  0.00000000E+00
  0.00000000E+00  0.00000000E+00  0.00000000E+00
  0.00000000E+00  0.00000000E+00  0.00000000E+00
  0.00000000E+00  0.00000000E+00  0.00000000E+00
  0.00000000E+00  0.00000000E+00  0.00000000E+00
  0.00000000E+00  0.00000000E+00  0.00000000E+00
  0.00000000E+00  0.00000000E+00  0.00000000E+00
  0.00000000E+00  0.00000000E+00  0.00000000E+00
  0.00000000E+00  0.00000000E+00  0.00000000E+00
  0.00000000E+00  0.00000000E+00  0.00000000E+00
  0.00000000E+00  0.00000000E+00  0.00000000E+00
  0.00000000E+00  0.00000000E+00  0.00000000E+00
  0.00000000E+00  0.00000000E+00  0.00000000E+00
  0.00000000E+00  0.00000000E+00  0.00000000E+00
  0.00000000E+00  0.00000000E+00  0.00000000E+00
  0.00000000E+00  0.00000000E+00  0.00000000E+00
  0.00000000E+00  0.00000000E+00  0.00000000E+00
  0.00000000E+00  0.00000000E+00  0.00000000E+00
  0.00000000E+00  0.00000000E+00  0.00000000E+00
  0.00000000E+00  0.00000000E+00  0.00000000E+00
  0.00000000E+00  0.00000000E+00  0.00000000E+00
  0.00000000E+00  0.00000000E+00  0.00000000E+00
  0.00000000E+00  0.00000000E+00  0.00000000E+00
  0.00000000E+00  0.00000000E+00  0.00000000E+00
  0.00000000E+00  0.00000000E+00  0.00000000E+00
  0.00000000E+00  0.00000000E+00  0.00000000E+00
  0.00000000E+00  0.00000000E+00  0.00000000E+00
  0.00000000E+00  0.00000000E+00  0.00000000E+00
  0.00000000E+00  0.00000000E+00  0.00000000E+00
  0.00000000E+00  0.00000000E+00  0.00000000E+00
  0.00000000E+00  0.00000000E+00  0.00000000E+00
  0.00000000E+00  0.00000000E+00  0.00000000E+00
  0.00000000E+00  0.00000000E+00  0.00000000E+00
  0.00000000E+00  0.00000000E+00  0.00000000E+00
  0.00000000E+00  0.00000000E+00  0.00000000E+00
  0.00000000E+00  0.00000000E+00  0.00000000E+00
  0.00000000E+00  0.00000000E+00  0.00000000E+00
  0.00000000E+00  0.00000000E+00  0.00000000E+00
  0.00000000E+00  0.00000000E+00  0.00000000E+00
  0.00000000E+00  0.00000000E+00  0.00000000E+00
  0.00000000E+00  0.00000000E+00  0.00000000E+00
  0.00000000E+00  0.00000000E+00  0.00000000E+00
  0.00000000E+00  0.00000000E+00  0.00000000E+00
  0.00000000E+00  0.00000000E+00  0.00000000E+00
  0.00000000E+00  0.00000000E+00  0.00000000E+00
  0.00000000E+00  0.00000000E+00  0.00000000E+00
  0.00000000E+00  0.00000000E+00  0.00000000E+00
  0.00000000E+00  0.00000000E+00  0.00000000E+00
  0.00000000E+00  0.00000000E+00  0.00000000E+00
  0.00000000E+00  0.00000000E+00  0.00000000E+00
  0.00000000E+00  0.00000000E+00  0.00000000E+00
  0.00000000E+00  0.00000000E+00  0.00000000E+00
  0.00000000E+00  0.00000000E+00  0.00000000E+00
  0.00000000E+00  0.00000000E+00  0.00000000E+00
  0.00000000E+00  0.00000000E+00  0.00000000E+00
  0.00000000E+00  0.00000000E+00  0.00000000E+00
  0.00000000E+00  0.00000000E+00  0.00000000E+00
  0.00000000E+00  0.00000000E+00  0.00000000E+00
